&control
    title                   = 'bridge.O1.Au5455.d.2.7.phi.0.psi.90'
    calculation             = 'relax'
    restart_mode            = 'from_scratch'
    pseudo_dir              = '../../../../pseudo/'
    outdir                  = '../../../../tempdir/'
    prefix                  = '33124736'
    verbosity               = 'default'
/
 
&system
    ibrav           = 4
    celldm(1)       = 22.7436433
    celldm(3)       = 2.25

    nat             = 67
    ntyp            = 3

    ecutwfc         = 50
    ecutrho         = 400
    input_dft  	    = 'vdW-DF'
    occupations     = 'smearing'
    smearing        = 'marzari-vanderbilt'
    degauss         = 0.02
/

&electrons
    conv_thr        = 1.0D-8
/

&ions

/

&cell

/

ATOMIC_SPECIES
 Au 196.966569 Au.pbe-nd-van.UPF
 H        1.01 H.pbe-van_ak.UPF
 O       16.00 O.pbe-van_ak.UPF

K_POINTS automatic
2 2 2 1 1 1


ATOMIC_POSITIONS (angstrom) 
O   3.509200335  3.473159790 10.077928543  1  1  1
H   2.908231429  2.892407890  9.577885394  1  1  1
H   4.091948134  2.862233459 10.563038656  1  1  1
Au  4.261116982  7.380469799  0.000000000  0  0  0
Au  5.765039921  4.775598049  0.000000000  0  0  0
Au  7.268963814  2.170727015  0.000000000  0  0  0
Au  8.772887230 -0.434145004  0.000000000  0  0  0
Au  1.253270030  7.380469799  0.000000000  0  0  0
Au  2.757193089  4.775598049  0.000000000  0  0  0
Au  4.261116982  2.170727015  0.000000000  0  0  0
Au  5.765039921 -0.434145004  0.000000000  0  0  0
Au -1.754577041  7.380469799  0.000000000  0  0  0
Au -0.250654012  4.775598049  0.000000000  0  0  0
Au  1.253270030  2.170727015  0.000000000  0  0  0
Au  2.757193089 -0.434145004  0.000000000  0  0  0
Au -4.762423992  7.380469799  0.000000000  0  0  0
Au -3.258500099  4.775598049  0.000000000  0  0  0
Au -1.754577041  2.170727015  0.000000000  0  0  0
Au -0.250654012 -0.434145004  0.000000000  0  0  0
Au  5.765039921  8.248760223  2.455895901  0  0  0
Au  7.268963814  5.643888950  2.455895901  0  0  0
Au  8.772887230  3.039016962  2.455895901  0  0  0
Au 10.276809692  0.434145004  2.455895901  0  0  0
Au  2.757193089  8.248760223  2.455895901  0  0  0
Au  4.261116982  5.643888950  2.455895901  0  0  0
Au  5.765039921  3.039016962  2.455895901  0  0  0
Au  7.268963814  0.434145004  2.455895901  0  0  0
Au -0.250654012  8.248760223  2.455895901  0  0  0
Au  1.253270030  5.643888950  2.455895901  0  0  0
Au  2.757193089  3.039016962  2.455895901  0  0  0
Au  4.261116982  0.434145004  2.455895901  0  0  0
Au -3.258500099  8.248760223  2.455895901  0  0  0
Au -1.754577041  5.643888950  2.455895901  0  0  0
Au -0.250654012  3.039016962  2.455895901  0  0  0
Au  1.253270030  0.434145004  2.455895901  0  0  0
Au  4.261936188  9.118745804  4.894181728  0  0  0
Au  5.766169071  6.512870789  4.894437790  0  0  0
Au  7.270078182  3.907733679  4.894343853  0  0  0
Au  8.774144173  1.301851511  4.894237995  0  0  0
Au  1.253081799  9.118316650  4.893897533  0  0  0
Au  2.757315159  6.512439728  4.894148827  0  0  0
Au  4.261219978  3.907303810  4.894058228  0  0  0
Au  5.765297413  1.301418781  4.893952847  0  0  0
Au -1.755005598  9.118157387  4.893870831  0  0  0
Au -0.250775844  6.512280464  4.894127846  0  0  0
Au  1.253129840  3.907144785  4.894032478  0  0  0
Au  2.757203341  1.301260710  4.893929958  0  0  0
Au -4.763819218  9.117780685  4.893374920  0  0  0
Au -3.259585381  6.511903286  4.893631458  0  0  0
Au -1.755681753  3.906769991  4.893536568  0  0  0
Au -0.251607478  1.300886750  4.893429756  0  0  0
Au  4.261843204  7.381735802  7.377424240  0  0  0
Au  5.765903950  4.775977135  7.377672672  0  0  0
Au  7.269820690  2.170961618  7.377541542  0  0  0
Au  8.774018288 -0.434744477  7.376971245  0  0  0
Au  1.253179789  7.381431103  7.377737999  0  0  0
Au  2.757243156  4.775669575  7.378001213  0  0  0
Au  4.261157513  2.170650005  7.377856731  0  0  0
Au  5.765354156 -0.435050219  7.377300262  0  0  0
Au -1.754800200  7.381338120  7.377686977  0  0  0
Au -0.250744373  4.775576115  7.377937794  0  0  0
Au  1.253174663  2.170560122  7.377810955  0  0  0
Au  2.757369995 -0.435145438  7.377237797  0  0  0
Au -4.763507843  7.381007195  7.377074242  0  0  0
Au -3.259441614  4.775242329  7.377336025  0  0  0
Au -1.755528927  2.170226097  7.377192497  0  0  0
Au -0.251327693 -0.435472369  7.376640320  0  0  0
