&control
    title                   = 'top.O1.Au50.d.3.6.phi.0.psi.90'
    calculation             = 'scf'
    restart_mode            = 'from_scratch'
    pseudo_dir              = '/home/scc/andrejb/qe/pseudo/'
    outdir                  = '/home/scc/andrejb/qe/tempdir/'
    prefix                  = '4083407'
    verbosity               = 'default'
/
 
&system
    ibrav           = 4
    celldm(1)       = 22.7436433
    celldm(3)       = 2.25

    nat             = 67
    ntyp            = 3

    ecutwfc         = 50
    ecutrho         = 400
    input_dft  	    = 'vdW-DF'
    occupations     = 'smearing'
    smearing        = 'marzari-vanderbilt'
    degauss         = 0.02
/

&electrons
    conv_thr        = 1.0D-8
/

&ions

/

&cell

/

ATOMIC_SPECIES
 Au 196.966569 Au.pbe-nd-van.UPF
 H        1.01 H.pbe-van_ak.UPF
 O       16.00 O.pbe-van_ak.UPF

K_POINTS automatic
2 2 2 1 1 1


ATOMIC_POSITIONS (angstrom) 
O   5.765903950  4.775977135 10.977672577
H   5.164935044  4.195225235 10.477629428
H   6.348651749  4.165050804 11.462782689
Au  4.261116982  7.380469799  0.000000000
Au  5.765039921  4.775598049  0.000000000
Au  7.268963814  2.170727015  0.000000000
Au  8.772887230 -0.434145004  0.000000000
Au  1.253270030  7.380469799  0.000000000
Au  2.757193089  4.775598049  0.000000000
Au  4.261116982  2.170727015  0.000000000
Au  5.765039921 -0.434145004  0.000000000
Au -1.754577041  7.380469799  0.000000000
Au -0.250654012  4.775598049  0.000000000
Au  1.253270030  2.170727015  0.000000000
Au  2.757193089 -0.434145004  0.000000000
Au -4.762423992  7.380469799  0.000000000
Au -3.258500099  4.775598049  0.000000000
Au -1.754577041  2.170727015  0.000000000
Au -0.250654012 -0.434145004  0.000000000
Au  5.765039921  8.248760223  2.455895901
Au  7.268963814  5.643888950  2.455895901
Au  8.772887230  3.039016962  2.455895901
Au 10.276809692  0.434145004  2.455895901
Au  2.757193089  8.248760223  2.455895901
Au  4.261116982  5.643888950  2.455895901
Au  5.765039921  3.039016962  2.455895901
Au  7.268963814  0.434145004  2.455895901
Au -0.250654012  8.248760223  2.455895901
Au  1.253270030  5.643888950  2.455895901
Au  2.757193089  3.039016962  2.455895901
Au  4.261116982  0.434145004  2.455895901
Au -3.258500099  8.248760223  2.455895901
Au -1.754577041  5.643888950  2.455895901
Au -0.250654012  3.039016962  2.455895901
Au  1.253270030  0.434145004  2.455895901
Au  4.261936188  9.118745804  4.894181728
Au  5.766169071  6.512870789  4.894437790
Au  7.270078182  3.907733679  4.894343853
Au  8.774144173  1.301851511  4.894237995
Au  1.253081799  9.118316650  4.893897533
Au  2.757315159  6.512439728  4.894148827
Au  4.261219978  3.907303810  4.894058228
Au  5.765297413  1.301418781  4.893952847
Au -1.755005598  9.118157387  4.893870831
Au -0.250775844  6.512280464  4.894127846
Au  1.253129840  3.907144785  4.894032478
Au  2.757203341  1.301260710  4.893929958
Au -4.763819218  9.117780685  4.893374920
Au -3.259585381  6.511903286  4.893631458
Au -1.755681753  3.906769991  4.893536568
Au -0.251607478  1.300886750  4.893429756
Au  4.261843204  7.381735802  7.377424240
Au  5.765903950  4.775977135  7.377672672
Au  7.269820690  2.170961618  7.377541542
Au  8.774018288 -0.434744477  7.376971245
Au  1.253179789  7.381431103  7.377737999
Au  2.757243156  4.775669575  7.378001213
Au  4.261157513  2.170650005  7.377856731
Au  5.765354156 -0.435050219  7.377300262
Au -1.754800200  7.381338120  7.377686977
Au -0.250744373  4.775576115  7.377937794
Au  1.253174663  2.170560122  7.377810955
Au  2.757369995 -0.435145438  7.377237797
Au -4.763507843  7.381007195  7.377074242
Au -3.259441614  4.775242329  7.377336025
Au -1.755528927  2.170226097  7.377192497
Au -0.251327693 -0.435472369  7.376640320
