&control
    title                   = 'top.O1.Au50.d.3.0.phi.0.psi.90'
    calculation             = 'relax'
    restart_mode            = 'from_scratch'
    pseudo_dir              = '../../../../pseudo/'
    outdir                  = '../../../../tempdir/'
    prefix                  = '30433193'
    verbosity               = 'default'
/
 
&system
    ibrav           = 4
    celldm(1)       = 22.7436433
    celldm(3)       = 2.25

    nat             = 67
    ntyp            = 3

    ecutwfc         = 50
    ecutrho         = 400
    occupations     = 'smearing'
    smearing        = 'marzari-vanderbilt'
    degauss         = 0.02
/

&electrons
    conv_thr        = 1.0D-8
/

&ions

/

&cell

/

ATOMIC_SPECIES
 Au 196.966569 Au.pbe-nd-van.UPF
 H        1.01 H.pbe-van_ak.UPF
 O       16.00 O.pbe-van_ak.UPF

K_POINTS automatic
2 2 2 1 1 1


ATOMIC_POSITIONS (angstrom) 
O   5.765903940  4.775977024 10.377672754  1  1  1
H   5.164935035  4.195225124  9.877629605  1  1  1
H   6.348651740  4.165050693 10.862782867  1  1  1
Au  4.261117000  7.380470000  0.000000000  0  0  0
Au  5.765040000  4.775598000  0.000000000  0  0  0
Au  7.268964000  2.170727000  0.000000000  0  0  0
Au  8.772887000 -0.434145000  0.000000000  0  0  0
Au  1.253270000  7.380470000  0.000000000  0  0  0
Au  2.757193000  4.775598000  0.000000000  0  0  0
Au  4.261117000  2.170727000  0.000000000  0  0  0
Au  5.765040000 -0.434145000  0.000000000  0  0  0
Au -1.754577000  7.380470000  0.000000000  0  0  0
Au -0.250654000  4.775598000  0.000000000  0  0  0
Au  1.253270000  2.170727000  0.000000000  0  0  0
Au  2.757193000 -0.434145000  0.000000000  0  0  0
Au -4.762424000  7.380470000  0.000000000  0  0  0
Au -3.258500000  4.775598000  0.000000000  0  0  0
Au -1.754577000  2.170727000  0.000000000  0  0  0
Au -0.250654000 -0.434145000  0.000000000  0  0  0
Au  5.765040000  8.248760000  2.455896000  0  0  0
Au  7.268964000  5.643889000  2.455896000  0  0  0
Au  8.772887000  3.039017000  2.455896000  0  0  0
Au 10.276810000  0.434145000  2.455896000  0  0  0
Au  2.757193000  8.248760000  2.455896000  0  0  0
Au  4.261117000  5.643889000  2.455896000  0  0  0
Au  5.765040000  3.039017000  2.455896000  0  0  0
Au  7.268964000  0.434145000  2.455896000  0  0  0
Au -0.250654000  8.248760000  2.455896000  0  0  0
Au  1.253270000  5.643889000  2.455896000  0  0  0
Au  2.757193000  3.039017000  2.455896000  0  0  0
Au  4.261117000  0.434145000  2.455896000  0  0  0
Au -3.258500000  8.248760000  2.455896000  0  0  0
Au -1.754577000  5.643889000  2.455896000  0  0  0
Au -0.250654000  3.039017000  2.455896000  0  0  0
Au  1.253270000  0.434145000  2.455896000  0  0  0
Au  4.261936086  9.118745949  4.894181796  0  0  0
Au  5.766168858  6.512870680  4.894437955  0  0  0
Au  7.270077990  3.907733622  4.894344067  0  0  0
Au  8.774144024  1.301851563  4.894238208  0  0  0
Au  1.253081841  9.118316194  4.893897745  0  0  0
Au  2.757315175  6.512439707  4.894148627  0  0  0
Au  4.261219778  3.907303886  4.894058403  0  0  0
Au  5.765297248  1.301418763  4.893952753  0  0  0
Au -1.755005563  9.118157099  4.893871056  0  0  0
Au -0.250775832  6.512280371  4.894127734  0  0  0
Au  1.253129886  3.907144806  4.894032314  0  0  0
Au  2.757203248  1.301260700  4.893929884  0  0  0
Au -4.763818999  9.117780756  4.893374701  0  0  0
Au -3.259585414  6.511903063  4.893631474  0  0  0
Au -1.755681715  3.906769930  4.893536782  0  0  0
Au -0.251607469  1.300886748  4.893429919  0  0  0
Au  4.261843034  7.381735769  7.377424444  0  0  0
Au  5.765903940  4.775977024  7.377672754  0  0  0
Au  7.269820773  2.170961653  7.377541712  0  0  0
Au  8.774018470 -0.434744481  7.376971426  0  0  0
Au  1.253179795  7.381430866  7.377738213  0  0  0
Au  2.757243204  4.775669411  7.378001384  0  0  0
Au  4.261157347  2.170650070  7.377856520  0  0  0
Au  5.765354042 -0.435050225  7.377300462  0  0  0
Au -1.754800224  7.381337914  7.377687123  0  0  0
Au -0.250744359  4.775576254  7.377937998  0  0  0
Au  1.253174615  2.170560080  7.377811054  0  0  0
Au  2.757369880 -0.435145449  7.377237928  0  0  0
Au -4.763507679  7.381007356  7.377074050  0  0  0
Au -3.259441573  4.775242495  7.377336099  0  0  0
Au -1.755528945  2.170226057  7.377192528  0  0  0
Au -0.251327688 -0.435472367  7.376640090  0  0  0
