&control
    title                   = 'bridge.O1.Au6165.d.2.7.phi.0.psi.90'
    calculation             = 'relax'
    restart_mode            = 'from_scratch'
    pseudo_dir              = '../../../../pseudo/'
    outdir                  = '../../../../tempdir/'
    prefix                  = '0917'
    verbosity               = 'default'
/
 
&system
    ibrav           = 8 
    celldm(1)       = 24.1232766176
    celldm(2)       = 1
    celldm(3)       = 2

    nat             = 75
    ntyp            = 3

    ecutwfc         = 50
    ecutrho         = 400
    occupations     = 'smearing'
    smearing        = 'marzari-vanderbilt'
    degauss         = 0.02
/

&electrons
    conv_thr        = 1.0D-8
/

&ions

/

&cell

/

ATOMIC_SPECIES
 Au 196.966569 Au.pbe-nd-van.UPF
 H        1.01 H.pbe-van_ak.UPF
 O       16.00 O.pbe-van_ak.UPF

K_POINTS automatic
2 2 3 1 1 1


ATOMIC_POSITIONS (angstrom) 
O   3.190300941  5.317169189  9.074044228  1  1  1
H   2.589332036  4.736417290  8.574001078  1  1  1
H   3.773048741  4.706242859  9.559154340  1  1  1
Au  0.000000000  0.000000000  0.000000000  0  0  0
Au  4.253737926  0.000000000  0.000000000  0  0  0
Au  8.507475853  0.000000000  0.000000000  0  0  0
Au  2.126868963  2.126868963  0.000000000  0  0  0
Au  6.380607128  2.126868963  0.000000000  0  0  0
Au 10.634344101  2.126868963  0.000000000  0  0  0
Au  0.000000000  4.253737926  0.000000000  0  0  0
Au  4.253737926  4.253737926  0.000000000  0  0  0
Au  8.507475853  4.253737926  0.000000000  0  0  0
Au  2.126868963  6.380607128  0.000000000  0  0  0
Au  6.380607128  6.380607128  0.000000000  0  0  0
Au 10.634344101  6.380607128  0.000000000  0  0  0
Au  0.000000000  8.507475853  0.000000000  0  0  0
Au  4.253737926  8.507475853  0.000000000  0  0  0
Au  8.507475853  8.507475853  0.000000000  0  0  0
Au  2.126868963 10.634344101  0.000000000  0  0  0
Au  6.380607128 10.634344101  0.000000000  0  0  0
Au 10.634344101 10.634344101  0.000000000  0  0  0
Au  2.126868963  0.000000000  2.126868963  0  0  0
Au  6.380607128  0.000000000  2.126868963  0  0  0
Au 10.634344101  0.000000000  2.126868963  0  0  0
Au  0.000000000  2.126868963  2.126868963  0  0  0
Au  4.253737926  2.126868963  2.126868963  0  0  0
Au  8.507475853  2.126868963  2.126868963  0  0  0
Au  2.126868963  4.253737926  2.126868963  0  0  0
Au  6.380607128  4.253737926  2.126868963  0  0  0
Au 10.634344101  4.253737926  2.126868963  0  0  0
Au  0.000000000  6.380607128  2.126868963  0  0  0
Au  4.253737926  6.380607128  2.126868963  0  0  0
Au  8.507475853  6.380607128  2.126868963  0  0  0
Au  2.126868963  8.507475853  2.126868963  0  0  0
Au  6.380607128  8.507475853  2.126868963  0  0  0
Au 10.634344101  8.507475853  2.126868963  0  0  0
Au  0.000000000 10.634344101  2.126868963  0  0  0
Au  4.253737926 10.634344101  2.126868963  0  0  0
Au  8.507475853 10.634344101  2.126868963  0  0  0
Au -0.000231899 -0.000231899  4.257900238  0  0  0
Au  4.253734589 -0.000230451  4.257893562  0  0  0
Au  8.507492065 -0.000233495  4.257904530  0  0  0
Au -0.000230451  4.253734589  4.257893562  0  0  0
Au  4.253735065  4.253735065  4.257887840  0  0  0
Au  8.507489204  4.253735542  4.257899761  0  0  0
Au -0.000233495  8.507492065  4.257904530  0  0  0
Au  4.253735542  8.507489204  4.257899761  0  0  0
Au  8.507491112  8.507491112  4.257910252  0  0  0
Au  2.126854181  2.126854181  4.257906914  0  0  0
Au  6.380599976  2.126855135  4.257899284  0  0  0
Au 10.634586334  2.126852274  4.257903576  0  0  0
Au  2.126855135  6.380599976  4.257899284  0  0  0
Au  6.380601406  6.380601406  4.257890701  0  0  0
Au 10.634584427  6.380601883  4.257895470  0  0  0
Au  2.126852274 10.634586334  4.257903576  0  0  0
Au  6.380601883 10.634584427  4.257895470  0  0  0
Au 10.634585381 10.634585381  4.257900715  0  0  0
Au  2.126863003 -0.000141616  6.373929977  0  0  0
Au  6.380603790 -0.000142418  6.373934269  0  0  0
Au 10.634494781 -0.000142245  6.373820305  0  0  0
Au -0.000141616  2.126863003  6.373929977  0  0  0
Au  4.253733158  2.126865625  6.374044418  0  0  0
Au  8.507479668  2.126865625  6.374047279  0  0  0
Au  2.126865625  4.253733158  6.374044418  0  0  0
Au  6.380604744  4.253736019  6.374044895  0  0  0
Au 10.634491920  4.253734589  6.373939037  0  0  0
Au -0.000142418  6.380603790  6.373934269  0  0  0
Au  4.253736019  6.380604744  6.374044895  0  0  0
Au  8.507478714  6.380605698  6.374047279  0  0  0
Au  2.126865625  8.507479668  6.374047279  0  0  0
Au  6.380605698  8.507478714  6.374047279  0  0  0
Au 10.634491920  8.507480621  6.373938560  0  0  0
Au -0.000142245 10.634494781  6.373820305  0  0  0
Au  4.253734589 10.634491920  6.373939037  0  0  0
Au  8.507480621 10.634491920  6.373938560  0  0  0
