fit comp noflags 
cell 
12.031364 12.031360 27.070570 90.000000 90.000000 120.000012 
cartesian 
O   3.730006  3.656862 10.404460
H   3.508019  3.471991  9.474737
H   3.094157  3.127552 10.917341
Au  4.259682  7.377984  0.000000
Au  5.763098  4.773990  0.000000
Au  7.266516  2.169996  0.000000
Au  8.769932 -0.433999  0.000000
Au  1.252848  7.377984  0.000000
Au  2.756264  4.773990  0.000000
Au  4.259682  2.169996  0.000000
Au  5.763098 -0.433999  0.000000
Au -1.753986  7.377984  0.000000
Au -0.250570  4.773990  0.000000
Au  1.252848  2.169996  0.000000
Au  2.756264 -0.433999  0.000000
Au -4.760821  7.377984  0.000000
Au -3.257403  4.773990  0.000000
Au -1.753986  2.169996  0.000000
Au -0.250570 -0.433999  0.000000
Au  5.763098  8.245982  2.455068
Au  7.266516  5.641988  2.455068
Au  8.769932  3.037993  2.455068
Au 10.273349  0.433999  2.455068
Au  2.756264  8.245982  2.455068
Au  4.259682  5.641988  2.455068
Au  5.763098  3.037993  2.455068
Au  7.266516  0.433999  2.455068
Au -0.250570  8.245982  2.455068
Au  1.252848  5.641988  2.455068
Au  2.756264  3.037993  2.455068
Au  4.259682  0.433999  2.455068
Au -3.257403  8.245982  2.455068
Au -1.753986  5.641988  2.455068
Au -0.250570  3.037993  2.455068
Au  1.252848  0.433999  2.455068
Au  4.260501  9.115675  4.892534
Au  5.764227  6.510678  4.892789
Au  7.267630  3.906418  4.892695
Au  8.771189  1.301413  4.892589
Au  1.252660  9.115246  4.892250
Au  2.756387  6.510247  4.892500
Au  4.259785  3.905988  4.892410
Au  5.763356  1.300980  4.892304
Au -1.754415  9.115087  4.892222
Au -0.250692  6.510087  4.892480
Au  1.252708  3.905828  4.892385
Au  2.756275  1.300823  4.892281
Au -4.762215  9.114710  4.891727
Au -3.258488  6.509710  4.891983
Au -1.755091  3.905454  4.891889
Au -0.251523  1.300449  4.891782
Au  4.260408  7.379250  7.374940
Au  5.763962  4.774369  7.375188
Au  7.267372  2.170231  7.375057
Au  8.771063 -0.434598  7.374486
Au  1.252757  7.378945  7.375253
Au  2.756315  4.774061  7.375516
Au  4.259723  2.169919  7.375372
Au  5.763412 -0.434904  7.374816
Au -1.754209  7.378853  7.375202
Au -0.250660  4.773968  7.375453
Au  1.252753  2.169829  7.375326
Au  2.756441 -0.434999  7.374754
Au -4.761903  7.378522  7.374590
Au -3.258344  4.773634  7.374851
Au -1.754938  2.169496  7.374708
Au -0.251243 -0.435326  7.374156
observable
energy ev
-0.144996137416
end

cell 
12.031364 12.031360 27.070570 90.000000 90.000000 120.000012 
cartesian 
O   3.534263  3.759682 10.404460
H   3.508019  3.471991  9.474737
H   3.458928  2.935791 10.917341
Au  4.259682  7.377984  0.000000
Au  5.763098  4.773990  0.000000
Au  7.266516  2.169996  0.000000
Au  8.769932 -0.433999  0.000000
Au  1.252848  7.377984  0.000000
Au  2.756264  4.773990  0.000000
Au  4.259682  2.169996  0.000000
Au  5.763098 -0.433999  0.000000
Au -1.753986  7.377984  0.000000
Au -0.250570  4.773990  0.000000
Au  1.252848  2.169996  0.000000
Au  2.756264 -0.433999  0.000000
Au -4.760821  7.377984  0.000000
Au -3.257403  4.773990  0.000000
Au -1.753986  2.169996  0.000000
Au -0.250570 -0.433999  0.000000
Au  5.763098  8.245982  2.455068
Au  7.266516  5.641988  2.455068
Au  8.769932  3.037993  2.455068
Au 10.273349  0.433999  2.455068
Au  2.756264  8.245982  2.455068
Au  4.259682  5.641988  2.455068
Au  5.763098  3.037993  2.455068
Au  7.266516  0.433999  2.455068
Au -0.250570  8.245982  2.455068
Au  1.252848  5.641988  2.455068
Au  2.756264  3.037993  2.455068
Au  4.259682  0.433999  2.455068
Au -3.257403  8.245982  2.455068
Au -1.753986  5.641988  2.455068
Au -0.250570  3.037993  2.455068
Au  1.252848  0.433999  2.455068
Au  4.260501  9.115675  4.892534
Au  5.764227  6.510678  4.892789
Au  7.267630  3.906418  4.892695
Au  8.771189  1.301413  4.892589
Au  1.252660  9.115246  4.892250
Au  2.756387  6.510247  4.892500
Au  4.259785  3.905988  4.892410
Au  5.763356  1.300980  4.892304
Au -1.754415  9.115087  4.892222
Au -0.250692  6.510087  4.892480
Au  1.252708  3.905828  4.892385
Au  2.756275  1.300823  4.892281
Au -4.762215  9.114710  4.891727
Au -3.258488  6.509710  4.891983
Au -1.755091  3.905454  4.891889
Au -0.251523  1.300449  4.891782
Au  4.260408  7.379250  7.374940
Au  5.763962  4.774369  7.375188
Au  7.267372  2.170231  7.375057
Au  8.771063 -0.434598  7.374486
Au  1.252757  7.378945  7.375253
Au  2.756315  4.774061  7.375516
Au  4.259723  2.169919  7.375372
Au  5.763412 -0.434904  7.374816
Au -1.754209  7.378853  7.375202
Au -0.250660  4.773968  7.375453
Au  1.252753  2.169829  7.375326
Au  2.756441 -0.434999  7.374754
Au -4.761903  7.378522  7.374590
Au -3.258344  4.773634  7.374851
Au -1.754938  2.169496  7.374708
Au -0.251243 -0.435326  7.374156
observable
energy ev
-0.133773481939
end

cell 
12.031364 12.031360 27.070570 90.000000 90.000000 120.000012 
cartesian 
O   3.534263  2.542267  9.762430
H   3.508019  3.471991  9.474737
H   3.458928  2.029387  8.938539
Au  4.259682  7.377984  0.000000
Au  5.763098  4.773990  0.000000
Au  7.266516  2.169996  0.000000
Au  8.769932 -0.433999  0.000000
Au  1.252848  7.377984  0.000000
Au  2.756264  4.773990  0.000000
Au  4.259682  2.169996  0.000000
Au  5.763098 -0.433999  0.000000
Au -1.753986  7.377984  0.000000
Au -0.250570  4.773990  0.000000
Au  1.252848  2.169996  0.000000
Au  2.756264 -0.433999  0.000000
Au -4.760821  7.377984  0.000000
Au -3.257403  4.773990  0.000000
Au -1.753986  2.169996  0.000000
Au -0.250570 -0.433999  0.000000
Au  5.763098  8.245982  2.455068
Au  7.266516  5.641988  2.455068
Au  8.769932  3.037993  2.455068
Au 10.273349  0.433999  2.455068
Au  2.756264  8.245982  2.455068
Au  4.259682  5.641988  2.455068
Au  5.763098  3.037993  2.455068
Au  7.266516  0.433999  2.455068
Au -0.250570  8.245982  2.455068
Au  1.252848  5.641988  2.455068
Au  2.756264  3.037993  2.455068
Au  4.259682  0.433999  2.455068
Au -3.257403  8.245982  2.455068
Au -1.753986  5.641988  2.455068
Au -0.250570  3.037993  2.455068
Au  1.252848  0.433999  2.455068
Au  4.260501  9.115675  4.892534
Au  5.764227  6.510678  4.892789
Au  7.267630  3.906418  4.892695
Au  8.771189  1.301413  4.892589
Au  1.252660  9.115246  4.892250
Au  2.756387  6.510247  4.892500
Au  4.259785  3.905988  4.892410
Au  5.763356  1.300980  4.892304
Au -1.754415  9.115087  4.892222
Au -0.250692  6.510087  4.892480
Au  1.252708  3.905828  4.892385
Au  2.756275  1.300823  4.892281
Au -4.762215  9.114710  4.891727
Au -3.258488  6.509710  4.891983
Au -1.755091  3.905454  4.891889
Au -0.251523  1.300449  4.891782
Au  4.260408  7.379250  7.374940
Au  5.763962  4.774369  7.375188
Au  7.267372  2.170231  7.375057
Au  8.771063 -0.434598  7.374486
Au  1.252757  7.378945  7.375253
Au  2.756315  4.774061  7.375516
Au  4.259723  2.169919  7.375372
Au  5.763412 -0.434904  7.374816
Au -1.754209  7.378853  7.375202
Au -0.250660  4.773968  7.375453
Au  1.252753  2.169829  7.375326
Au  2.756441 -0.434999  7.374754
Au -4.761903  7.378522  7.374590
Au -3.258344  4.773634  7.374851
Au -1.754938  2.169496  7.374708
Au -0.251243 -0.435326  7.374156
observable
energy ev
0.783114954
end

cell 
12.031364 12.031360 27.070570 90.000000 90.000000 120.000012 
cartesian 
O   3.730006  3.656862 10.704358
H   3.508019  3.471991  9.774635
H   3.094157  3.127552 11.217239
Au  4.259682  7.377984  0.000000
Au  5.763098  4.773990  0.000000
Au  7.266516  2.169996  0.000000
Au  8.769932 -0.433999  0.000000
Au  1.252848  7.377984  0.000000
Au  2.756264  4.773990  0.000000
Au  4.259682  2.169996  0.000000
Au  5.763098 -0.433999  0.000000
Au -1.753986  7.377984  0.000000
Au -0.250570  4.773990  0.000000
Au  1.252848  2.169996  0.000000
Au  2.756264 -0.433999  0.000000
Au -4.760821  7.377984  0.000000
Au -3.257403  4.773990  0.000000
Au -1.753986  2.169996  0.000000
Au -0.250570 -0.433999  0.000000
Au  5.763098  8.245982  2.455068
Au  7.266516  5.641988  2.455068
Au  8.769932  3.037993  2.455068
Au 10.273349  0.433999  2.455068
Au  2.756264  8.245982  2.455068
Au  4.259682  5.641988  2.455068
Au  5.763098  3.037993  2.455068
Au  7.266516  0.433999  2.455068
Au -0.250570  8.245982  2.455068
Au  1.252848  5.641988  2.455068
Au  2.756264  3.037993  2.455068
Au  4.259682  0.433999  2.455068
Au -3.257403  8.245982  2.455068
Au -1.753986  5.641988  2.455068
Au -0.250570  3.037993  2.455068
Au  1.252848  0.433999  2.455068
Au  4.260501  9.115675  4.892534
Au  5.764227  6.510678  4.892789
Au  7.267630  3.906418  4.892695
Au  8.771189  1.301413  4.892589
Au  1.252660  9.115246  4.892250
Au  2.756387  6.510247  4.892500
Au  4.259785  3.905988  4.892410
Au  5.763356  1.300980  4.892304
Au -1.754415  9.115087  4.892222
Au -0.250692  6.510087  4.892480
Au  1.252708  3.905828  4.892385
Au  2.756275  1.300823  4.892281
Au -4.762215  9.114710  4.891727
Au -3.258488  6.509710  4.891983
Au -1.755091  3.905454  4.891889
Au -0.251523  1.300449  4.891782
Au  4.260408  7.379250  7.374940
Au  5.763962  4.774369  7.375188
Au  7.267372  2.170231  7.375057
Au  8.771063 -0.434598  7.374486
Au  1.252757  7.378945  7.375253
Au  2.756315  4.774061  7.375516
Au  4.259723  2.169919  7.375372
Au  5.763412 -0.434904  7.374816
Au -1.754209  7.378853  7.375202
Au -0.250660  4.773968  7.375453
Au  1.252753  2.169829  7.375326
Au  2.756441 -0.434999  7.374754
Au -4.761903  7.378522  7.374590
Au -3.258344  4.773634  7.374851
Au -1.754938  2.169496  7.374708
Au -0.251243 -0.435326  7.374156
observable
energy ev
-0.192757832585
end

cell 
12.031364 12.031360 27.070570 90.000000 90.000000 120.000012 
cartesian 
O   3.730006  2.542267  9.959507
H   3.508019  3.471991  9.774635
H   3.094157  2.029387  9.430197
Au  4.259682  7.377984  0.000000
Au  5.763098  4.773990  0.000000
Au  7.266516  2.169996  0.000000
Au  8.769932 -0.433999  0.000000
Au  1.252848  7.377984  0.000000
Au  2.756264  4.773990  0.000000
Au  4.259682  2.169996  0.000000
Au  5.763098 -0.433999  0.000000
Au -1.753986  7.377984  0.000000
Au -0.250570  4.773990  0.000000
Au  1.252848  2.169996  0.000000
Au  2.756264 -0.433999  0.000000
Au -4.760821  7.377984  0.000000
Au -3.257403  4.773990  0.000000
Au -1.753986  2.169996  0.000000
Au -0.250570 -0.433999  0.000000
Au  5.763098  8.245982  2.455068
Au  7.266516  5.641988  2.455068
Au  8.769932  3.037993  2.455068
Au 10.273349  0.433999  2.455068
Au  2.756264  8.245982  2.455068
Au  4.259682  5.641988  2.455068
Au  5.763098  3.037993  2.455068
Au  7.266516  0.433999  2.455068
Au -0.250570  8.245982  2.455068
Au  1.252848  5.641988  2.455068
Au  2.756264  3.037993  2.455068
Au  4.259682  0.433999  2.455068
Au -3.257403  8.245982  2.455068
Au -1.753986  5.641988  2.455068
Au -0.250570  3.037993  2.455068
Au  1.252848  0.433999  2.455068
Au  4.260501  9.115675  4.892534
Au  5.764227  6.510678  4.892789
Au  7.267630  3.906418  4.892695
Au  8.771189  1.301413  4.892589
Au  1.252660  9.115246  4.892250
Au  2.756387  6.510247  4.892500
Au  4.259785  3.905988  4.892410
Au  5.763356  1.300980  4.892304
Au -1.754415  9.115087  4.892222
Au -0.250692  6.510087  4.892480
Au  1.252708  3.905828  4.892385
Au  2.756275  1.300823  4.892281
Au -4.762215  9.114710  4.891727
Au -3.258488  6.509710  4.891983
Au -1.755091  3.905454  4.891889
Au -0.251523  1.300449  4.891782
Au  4.260408  7.379250  7.374940
Au  5.763962  4.774369  7.375188
Au  7.267372  2.170231  7.375057
Au  8.771063 -0.434598  7.374486
Au  1.252757  7.378945  7.375253
Au  2.756315  4.774061  7.375516
Au  4.259723  2.169919  7.375372
Au  5.763412 -0.434904  7.374816
Au -1.754209  7.378853  7.375202
Au -0.250660  4.773968  7.375453
Au  1.252753  2.169829  7.375326
Au  2.756441 -0.434999  7.374754
Au -4.761903  7.378522  7.374590
Au -3.258344  4.773634  7.374851
Au -1.754938  2.169496  7.374708
Au -0.251243 -0.435326  7.374156
observable
energy ev
-0.0104731178872
end

cell 
12.031364 12.031360 27.070570 90.000000 90.000000 120.000012 
cartesian 
O   3.534263  3.759682 10.704358
H   3.508019  3.471991  9.774635
H   3.458928  2.935791 11.217239
Au  4.259682  7.377984  0.000000
Au  5.763098  4.773990  0.000000
Au  7.266516  2.169996  0.000000
Au  8.769932 -0.433999  0.000000
Au  1.252848  7.377984  0.000000
Au  2.756264  4.773990  0.000000
Au  4.259682  2.169996  0.000000
Au  5.763098 -0.433999  0.000000
Au -1.753986  7.377984  0.000000
Au -0.250570  4.773990  0.000000
Au  1.252848  2.169996  0.000000
Au  2.756264 -0.433999  0.000000
Au -4.760821  7.377984  0.000000
Au -3.257403  4.773990  0.000000
Au -1.753986  2.169996  0.000000
Au -0.250570 -0.433999  0.000000
Au  5.763098  8.245982  2.455068
Au  7.266516  5.641988  2.455068
Au  8.769932  3.037993  2.455068
Au 10.273349  0.433999  2.455068
Au  2.756264  8.245982  2.455068
Au  4.259682  5.641988  2.455068
Au  5.763098  3.037993  2.455068
Au  7.266516  0.433999  2.455068
Au -0.250570  8.245982  2.455068
Au  1.252848  5.641988  2.455068
Au  2.756264  3.037993  2.455068
Au  4.259682  0.433999  2.455068
Au -3.257403  8.245982  2.455068
Au -1.753986  5.641988  2.455068
Au -0.250570  3.037993  2.455068
Au  1.252848  0.433999  2.455068
Au  4.260501  9.115675  4.892534
Au  5.764227  6.510678  4.892789
Au  7.267630  3.906418  4.892695
Au  8.771189  1.301413  4.892589
Au  1.252660  9.115246  4.892250
Au  2.756387  6.510247  4.892500
Au  4.259785  3.905988  4.892410
Au  5.763356  1.300980  4.892304
Au -1.754415  9.115087  4.892222
Au -0.250692  6.510087  4.892480
Au  1.252708  3.905828  4.892385
Au  2.756275  1.300823  4.892281
Au -4.762215  9.114710  4.891727
Au -3.258488  6.509710  4.891983
Au -1.755091  3.905454  4.891889
Au -0.251523  1.300449  4.891782
Au  4.260408  7.379250  7.374940
Au  5.763962  4.774369  7.375188
Au  7.267372  2.170231  7.375057
Au  8.771063 -0.434598  7.374486
Au  1.252757  7.378945  7.375253
Au  2.756315  4.774061  7.375516
Au  4.259723  2.169919  7.375372
Au  5.763412 -0.434904  7.374816
Au -1.754209  7.378853  7.375202
Au -0.250660  4.773968  7.375453
Au  1.252753  2.169829  7.375326
Au  2.756441 -0.434999  7.374754
Au -4.761903  7.378522  7.374590
Au -3.258344  4.773634  7.374851
Au -1.754938  2.169496  7.374708
Au -0.251243 -0.435326  7.374156
observable
energy ev
-0.187958560608
end

cell 
12.031364 12.031360 27.070570 90.000000 90.000000 120.000012 
cartesian 
O   3.534263  2.542267 10.062328
H   3.508019  3.471991  9.774635
H   3.458928  2.029387  9.238436
Au  4.259682  7.377984  0.000000
Au  5.763098  4.773990  0.000000
Au  7.266516  2.169996  0.000000
Au  8.769932 -0.433999  0.000000
Au  1.252848  7.377984  0.000000
Au  2.756264  4.773990  0.000000
Au  4.259682  2.169996  0.000000
Au  5.763098 -0.433999  0.000000
Au -1.753986  7.377984  0.000000
Au -0.250570  4.773990  0.000000
Au  1.252848  2.169996  0.000000
Au  2.756264 -0.433999  0.000000
Au -4.760821  7.377984  0.000000
Au -3.257403  4.773990  0.000000
Au -1.753986  2.169996  0.000000
Au -0.250570 -0.433999  0.000000
Au  5.763098  8.245982  2.455068
Au  7.266516  5.641988  2.455068
Au  8.769932  3.037993  2.455068
Au 10.273349  0.433999  2.455068
Au  2.756264  8.245982  2.455068
Au  4.259682  5.641988  2.455068
Au  5.763098  3.037993  2.455068
Au  7.266516  0.433999  2.455068
Au -0.250570  8.245982  2.455068
Au  1.252848  5.641988  2.455068
Au  2.756264  3.037993  2.455068
Au  4.259682  0.433999  2.455068
Au -3.257403  8.245982  2.455068
Au -1.753986  5.641988  2.455068
Au -0.250570  3.037993  2.455068
Au  1.252848  0.433999  2.455068
Au  4.260501  9.115675  4.892534
Au  5.764227  6.510678  4.892789
Au  7.267630  3.906418  4.892695
Au  8.771189  1.301413  4.892589
Au  1.252660  9.115246  4.892250
Au  2.756387  6.510247  4.892500
Au  4.259785  3.905988  4.892410
Au  5.763356  1.300980  4.892304
Au -1.754415  9.115087  4.892222
Au -0.250692  6.510087  4.892480
Au  1.252708  3.905828  4.892385
Au  2.756275  1.300823  4.892281
Au -4.762215  9.114710  4.891727
Au -3.258488  6.509710  4.891983
Au -1.755091  3.905454  4.891889
Au -0.251523  1.300449  4.891782
Au  4.260408  7.379250  7.374940
Au  5.763962  4.774369  7.375188
Au  7.267372  2.170231  7.375057
Au  8.771063 -0.434598  7.374486
Au  1.252757  7.378945  7.375253
Au  2.756315  4.774061  7.375516
Au  4.259723  2.169919  7.375372
Au  5.763412 -0.434904  7.374816
Au -1.754209  7.378853  7.375202
Au -0.250660  4.773968  7.375453
Au  1.252753  2.169829  7.375326
Au  2.756441 -0.434999  7.374754
Au -4.761903  7.378522  7.374590
Au -3.258344  4.773634  7.374851
Au -1.754938  2.169496  7.374708
Au -0.251243 -0.435326  7.374156
observable
energy ev
0.156934452301
end

cell 
12.031364 12.031360 27.070570 90.000000 90.000000 120.000012 
cartesian 
O   3.730006  3.656862 12.803652
H   3.508019  3.471991 11.873928
H   3.094157  3.127552 13.316532
Au  4.259682  7.377984  0.000000
Au  5.763098  4.773990  0.000000
Au  7.266516  2.169996  0.000000
Au  8.769932 -0.433999  0.000000
Au  1.252848  7.377984  0.000000
Au  2.756264  4.773990  0.000000
Au  4.259682  2.169996  0.000000
Au  5.763098 -0.433999  0.000000
Au -1.753986  7.377984  0.000000
Au -0.250570  4.773990  0.000000
Au  1.252848  2.169996  0.000000
Au  2.756264 -0.433999  0.000000
Au -4.760821  7.377984  0.000000
Au -3.257403  4.773990  0.000000
Au -1.753986  2.169996  0.000000
Au -0.250570 -0.433999  0.000000
Au  5.763098  8.245982  2.455068
Au  7.266516  5.641988  2.455068
Au  8.769932  3.037993  2.455068
Au 10.273349  0.433999  2.455068
Au  2.756264  8.245982  2.455068
Au  4.259682  5.641988  2.455068
Au  5.763098  3.037993  2.455068
Au  7.266516  0.433999  2.455068
Au -0.250570  8.245982  2.455068
Au  1.252848  5.641988  2.455068
Au  2.756264  3.037993  2.455068
Au  4.259682  0.433999  2.455068
Au -3.257403  8.245982  2.455068
Au -1.753986  5.641988  2.455068
Au -0.250570  3.037993  2.455068
Au  1.252848  0.433999  2.455068
Au  4.260501  9.115675  4.892534
Au  5.764227  6.510678  4.892789
Au  7.267630  3.906418  4.892695
Au  8.771189  1.301413  4.892589
Au  1.252660  9.115246  4.892250
Au  2.756387  6.510247  4.892500
Au  4.259785  3.905988  4.892410
Au  5.763356  1.300980  4.892304
Au -1.754415  9.115087  4.892222
Au -0.250692  6.510087  4.892480
Au  1.252708  3.905828  4.892385
Au  2.756275  1.300823  4.892281
Au -4.762215  9.114710  4.891727
Au -3.258488  6.509710  4.891983
Au -1.755091  3.905454  4.891889
Au -0.251523  1.300449  4.891782
Au  4.260408  7.379250  7.374940
Au  5.763962  4.774369  7.375188
Au  7.267372  2.170231  7.375057
Au  8.771063 -0.434598  7.374486
Au  1.252757  7.378945  7.375253
Au  2.756315  4.774061  7.375516
Au  4.259723  2.169919  7.375372
Au  5.763412 -0.434904  7.374816
Au -1.754209  7.378853  7.375202
Au -0.250660  4.773968  7.375453
Au  1.252753  2.169829  7.375326
Au  2.756441 -0.434999  7.374754
Au -4.761903  7.378522  7.374590
Au -3.258344  4.773634  7.374851
Au -1.754938  2.169496  7.374708
Au -0.251243 -0.435326  7.374156
observable
energy ev
-0.100172183375
end

cell 
12.031364 12.031360 27.070570 90.000000 90.000000 120.000012 
cartesian 
O   3.730006  2.542267 12.058801
H   3.508019  3.471991 11.873928
H   3.094157  2.029387 11.529490
Au  4.259682  7.377984  0.000000
Au  5.763098  4.773990  0.000000
Au  7.266516  2.169996  0.000000
Au  8.769932 -0.433999  0.000000
Au  1.252848  7.377984  0.000000
Au  2.756264  4.773990  0.000000
Au  4.259682  2.169996  0.000000
Au  5.763098 -0.433999  0.000000
Au -1.753986  7.377984  0.000000
Au -0.250570  4.773990  0.000000
Au  1.252848  2.169996  0.000000
Au  2.756264 -0.433999  0.000000
Au -4.760821  7.377984  0.000000
Au -3.257403  4.773990  0.000000
Au -1.753986  2.169996  0.000000
Au -0.250570 -0.433999  0.000000
Au  5.763098  8.245982  2.455068
Au  7.266516  5.641988  2.455068
Au  8.769932  3.037993  2.455068
Au 10.273349  0.433999  2.455068
Au  2.756264  8.245982  2.455068
Au  4.259682  5.641988  2.455068
Au  5.763098  3.037993  2.455068
Au  7.266516  0.433999  2.455068
Au -0.250570  8.245982  2.455068
Au  1.252848  5.641988  2.455068
Au  2.756264  3.037993  2.455068
Au  4.259682  0.433999  2.455068
Au -3.257403  8.245982  2.455068
Au -1.753986  5.641988  2.455068
Au -0.250570  3.037993  2.455068
Au  1.252848  0.433999  2.455068
Au  4.260501  9.115675  4.892534
Au  5.764227  6.510678  4.892789
Au  7.267630  3.906418  4.892695
Au  8.771189  1.301413  4.892589
Au  1.252660  9.115246  4.892250
Au  2.756387  6.510247  4.892500
Au  4.259785  3.905988  4.892410
Au  5.763356  1.300980  4.892304
Au -1.754415  9.115087  4.892222
Au -0.250692  6.510087  4.892480
Au  1.252708  3.905828  4.892385
Au  2.756275  1.300823  4.892281
Au -4.762215  9.114710  4.891727
Au -3.258488  6.509710  4.891983
Au -1.755091  3.905454  4.891889
Au -0.251523  1.300449  4.891782
Au  4.260408  7.379250  7.374940
Au  5.763962  4.774369  7.375188
Au  7.267372  2.170231  7.375057
Au  8.771063 -0.434598  7.374486
Au  1.252757  7.378945  7.375253
Au  2.756315  4.774061  7.375516
Au  4.259723  2.169919  7.375372
Au  5.763412 -0.434904  7.374816
Au -1.754209  7.378853  7.375202
Au -0.250660  4.773968  7.375453
Au  1.252753  2.169829  7.375326
Au  2.756441 -0.434999  7.374754
Au -4.761903  7.378522  7.374590
Au -3.258344  4.773634  7.374851
Au -1.754938  2.169496  7.374708
Au -0.251243 -0.435326  7.374156
observable
energy ev
-0.136105905811
end

cell 
12.031364 12.031360 27.070570 90.000000 90.000000 120.000012 
cartesian 
O   3.534263  3.759682 12.803652
H   3.508019  3.471991 11.873928
H   3.458928  2.935791 13.316532
Au  4.259682  7.377984  0.000000
Au  5.763098  4.773990  0.000000
Au  7.266516  2.169996  0.000000
Au  8.769932 -0.433999  0.000000
Au  1.252848  7.377984  0.000000
Au  2.756264  4.773990  0.000000
Au  4.259682  2.169996  0.000000
Au  5.763098 -0.433999  0.000000
Au -1.753986  7.377984  0.000000
Au -0.250570  4.773990  0.000000
Au  1.252848  2.169996  0.000000
Au  2.756264 -0.433999  0.000000
Au -4.760821  7.377984  0.000000
Au -3.257403  4.773990  0.000000
Au -1.753986  2.169996  0.000000
Au -0.250570 -0.433999  0.000000
Au  5.763098  8.245982  2.455068
Au  7.266516  5.641988  2.455068
Au  8.769932  3.037993  2.455068
Au 10.273349  0.433999  2.455068
Au  2.756264  8.245982  2.455068
Au  4.259682  5.641988  2.455068
Au  5.763098  3.037993  2.455068
Au  7.266516  0.433999  2.455068
Au -0.250570  8.245982  2.455068
Au  1.252848  5.641988  2.455068
Au  2.756264  3.037993  2.455068
Au  4.259682  0.433999  2.455068
Au -3.257403  8.245982  2.455068
Au -1.753986  5.641988  2.455068
Au -0.250570  3.037993  2.455068
Au  1.252848  0.433999  2.455068
Au  4.260501  9.115675  4.892534
Au  5.764227  6.510678  4.892789
Au  7.267630  3.906418  4.892695
Au  8.771189  1.301413  4.892589
Au  1.252660  9.115246  4.892250
Au  2.756387  6.510247  4.892500
Au  4.259785  3.905988  4.892410
Au  5.763356  1.300980  4.892304
Au -1.754415  9.115087  4.892222
Au -0.250692  6.510087  4.892480
Au  1.252708  3.905828  4.892385
Au  2.756275  1.300823  4.892281
Au -4.762215  9.114710  4.891727
Au -3.258488  6.509710  4.891983
Au -1.755091  3.905454  4.891889
Au -0.251523  1.300449  4.891782
Au  4.260408  7.379250  7.374940
Au  5.763962  4.774369  7.375188
Au  7.267372  2.170231  7.375057
Au  8.771063 -0.434598  7.374486
Au  1.252757  7.378945  7.375253
Au  2.756315  4.774061  7.375516
Au  4.259723  2.169919  7.375372
Au  5.763412 -0.434904  7.374816
Au -1.754209  7.378853  7.375202
Au -0.250660  4.773968  7.375453
Au  1.252753  2.169829  7.375326
Au  2.756441 -0.434999  7.374754
Au -4.761903  7.378522  7.374590
Au -3.258344  4.773634  7.374851
Au -1.754938  2.169496  7.374708
Au -0.251243 -0.435326  7.374156
observable
energy ev
-0.100142386917
end

cell 
12.031364 12.031360 27.070570 90.000000 90.000000 120.000012 
cartesian 
O   3.534263  2.542267 12.161621
H   3.508019  3.471991 11.873928
H   3.458928  2.029387 11.337730
Au  4.259682  7.377984  0.000000
Au  5.763098  4.773990  0.000000
Au  7.266516  2.169996  0.000000
Au  8.769932 -0.433999  0.000000
Au  1.252848  7.377984  0.000000
Au  2.756264  4.773990  0.000000
Au  4.259682  2.169996  0.000000
Au  5.763098 -0.433999  0.000000
Au -1.753986  7.377984  0.000000
Au -0.250570  4.773990  0.000000
Au  1.252848  2.169996  0.000000
Au  2.756264 -0.433999  0.000000
Au -4.760821  7.377984  0.000000
Au -3.257403  4.773990  0.000000
Au -1.753986  2.169996  0.000000
Au -0.250570 -0.433999  0.000000
Au  5.763098  8.245982  2.455068
Au  7.266516  5.641988  2.455068
Au  8.769932  3.037993  2.455068
Au 10.273349  0.433999  2.455068
Au  2.756264  8.245982  2.455068
Au  4.259682  5.641988  2.455068
Au  5.763098  3.037993  2.455068
Au  7.266516  0.433999  2.455068
Au -0.250570  8.245982  2.455068
Au  1.252848  5.641988  2.455068
Au  2.756264  3.037993  2.455068
Au  4.259682  0.433999  2.455068
Au -3.257403  8.245982  2.455068
Au -1.753986  5.641988  2.455068
Au -0.250570  3.037993  2.455068
Au  1.252848  0.433999  2.455068
Au  4.260501  9.115675  4.892534
Au  5.764227  6.510678  4.892789
Au  7.267630  3.906418  4.892695
Au  8.771189  1.301413  4.892589
Au  1.252660  9.115246  4.892250
Au  2.756387  6.510247  4.892500
Au  4.259785  3.905988  4.892410
Au  5.763356  1.300980  4.892304
Au -1.754415  9.115087  4.892222
Au -0.250692  6.510087  4.892480
Au  1.252708  3.905828  4.892385
Au  2.756275  1.300823  4.892281
Au -4.762215  9.114710  4.891727
Au -3.258488  6.509710  4.891983
Au -1.755091  3.905454  4.891889
Au -0.251523  1.300449  4.891782
Au  4.260408  7.379250  7.374940
Au  5.763962  4.774369  7.375188
Au  7.267372  2.170231  7.375057
Au  8.771063 -0.434598  7.374486
Au  1.252757  7.378945  7.375253
Au  2.756315  4.774061  7.375516
Au  4.259723  2.169919  7.375372
Au  5.763412 -0.434904  7.374816
Au -1.754209  7.378853  7.375202
Au -0.250660  4.773968  7.375453
Au  1.252753  2.169829  7.375326
Au  2.756441 -0.434999  7.374754
Au -4.761903  7.378522  7.374590
Au -3.258344  4.773634  7.374851
Au -1.754938  2.169496  7.374708
Au -0.251243 -0.435326  7.374156
observable
energy ev
-0.133710351525
end

cell 
12.031364 12.031360 27.070570 90.000000 90.000000 120.000012 
cartesian 
O   3.508019  3.471991  9.874602
H   2.907252  2.972115 10.455158
H   4.090570  3.956936 10.485322
Au  4.259682  7.377984  0.000000
Au  5.763098  4.773990  0.000000
Au  7.266516  2.169996  0.000000
Au  8.769932 -0.433999  0.000000
Au  1.252848  7.377984  0.000000
Au  2.756264  4.773990  0.000000
Au  4.259682  2.169996  0.000000
Au  5.763098 -0.433999  0.000000
Au -1.753986  7.377984  0.000000
Au -0.250570  4.773990  0.000000
Au  1.252848  2.169996  0.000000
Au  2.756264 -0.433999  0.000000
Au -4.760821  7.377984  0.000000
Au -3.257403  4.773990  0.000000
Au -1.753986  2.169996  0.000000
Au -0.250570 -0.433999  0.000000
Au  5.763098  8.245982  2.455068
Au  7.266516  5.641988  2.455068
Au  8.769932  3.037993  2.455068
Au 10.273349  0.433999  2.455068
Au  2.756264  8.245982  2.455068
Au  4.259682  5.641988  2.455068
Au  5.763098  3.037993  2.455068
Au  7.266516  0.433999  2.455068
Au -0.250570  8.245982  2.455068
Au  1.252848  5.641988  2.455068
Au  2.756264  3.037993  2.455068
Au  4.259682  0.433999  2.455068
Au -3.257403  8.245982  2.455068
Au -1.753986  5.641988  2.455068
Au -0.250570  3.037993  2.455068
Au  1.252848  0.433999  2.455068
Au  4.260501  9.115675  4.892534
Au  5.764227  6.510678  4.892789
Au  7.267630  3.906418  4.892695
Au  8.771189  1.301413  4.892589
Au  1.252660  9.115246  4.892250
Au  2.756387  6.510247  4.892500
Au  4.259785  3.905988  4.892410
Au  5.763356  1.300980  4.892304
Au -1.754415  9.115087  4.892222
Au -0.250692  6.510087  4.892480
Au  1.252708  3.905828  4.892385
Au  2.756275  1.300823  4.892281
Au -4.762215  9.114710  4.891727
Au -3.258488  6.509710  4.891983
Au -1.755091  3.905454  4.891889
Au -0.251523  1.300449  4.891782
Au  4.260408  7.379250  7.374940
Au  5.763962  4.774369  7.375188
Au  7.267372  2.170231  7.375057
Au  8.771063 -0.434598  7.374486
Au  1.252757  7.378945  7.375253
Au  2.756315  4.774061  7.375516
Au  4.259723  2.169919  7.375372
Au  5.763412 -0.434904  7.374816
Au -1.754209  7.378853  7.375202
Au -0.250660  4.773968  7.375453
Au  1.252753  2.169829  7.375326
Au  2.756441 -0.434999  7.374754
Au -4.761903  7.378522  7.374590
Au -3.258344  4.773634  7.374851
Au -1.754938  2.169496  7.374708
Au -0.251243 -0.435326  7.374156
observable
energy ev
-0.137439127604
end

cell 
12.031364 12.031360 27.070570 90.000000 90.000000 120.000012 
cartesian 
O   3.508019  3.471991  9.874602
H   2.907252  2.891434  9.374727
H   4.090570  2.861269 10.359549
Au  4.259682  7.377984  0.000000
Au  5.763098  4.773990  0.000000
Au  7.266516  2.169996  0.000000
Au  8.769932 -0.433999  0.000000
Au  1.252848  7.377984  0.000000
Au  2.756264  4.773990  0.000000
Au  4.259682  2.169996  0.000000
Au  5.763098 -0.433999  0.000000
Au -1.753986  7.377984  0.000000
Au -0.250570  4.773990  0.000000
Au  1.252848  2.169996  0.000000
Au  2.756264 -0.433999  0.000000
Au -4.760821  7.377984  0.000000
Au -3.257403  4.773990  0.000000
Au -1.753986  2.169996  0.000000
Au -0.250570 -0.433999  0.000000
Au  5.763098  8.245982  2.455068
Au  7.266516  5.641988  2.455068
Au  8.769932  3.037993  2.455068
Au 10.273349  0.433999  2.455068
Au  2.756264  8.245982  2.455068
Au  4.259682  5.641988  2.455068
Au  5.763098  3.037993  2.455068
Au  7.266516  0.433999  2.455068
Au -0.250570  8.245982  2.455068
Au  1.252848  5.641988  2.455068
Au  2.756264  3.037993  2.455068
Au  4.259682  0.433999  2.455068
Au -3.257403  8.245982  2.455068
Au -1.753986  5.641988  2.455068
Au -0.250570  3.037993  2.455068
Au  1.252848  0.433999  2.455068
Au  4.260501  9.115675  4.892534
Au  5.764227  6.510678  4.892789
Au  7.267630  3.906418  4.892695
Au  8.771189  1.301413  4.892589
Au  1.252660  9.115246  4.892250
Au  2.756387  6.510247  4.892500
Au  4.259785  3.905988  4.892410
Au  5.763356  1.300980  4.892304
Au -1.754415  9.115087  4.892222
Au -0.250692  6.510087  4.892480
Au  1.252708  3.905828  4.892385
Au  2.756275  1.300823  4.892281
Au -4.762215  9.114710  4.891727
Au -3.258488  6.509710  4.891983
Au -1.755091  3.905454  4.891889
Au -0.251523  1.300449  4.891782
Au  4.260408  7.379250  7.374940
Au  5.763962  4.774369  7.375188
Au  7.267372  2.170231  7.375057
Au  8.771063 -0.434598  7.374486
Au  1.252757  7.378945  7.375253
Au  2.756315  4.774061  7.375516
Au  4.259723  2.169919  7.375372