&control
    title                   = 'GOLD'
    calculation             = 'relax'
    restart_mode            = 'from_scratch'
    pseudo_dir              = '/home/scc/andrejb/qe/pseudo/'
    outdir                  = '/home/scc/andrejb/qe/tempdir/'
    prefix                  = '001strucdevrelax'
    verbosity               = 'default'
/
 
&system
    ibrav           = 8 
    celldm(1)       = 24.1232766176
    celldm(2)       = 1
    celldm(3)       = 2

    nat             = 72
    ntyp            = 1

    ecutwfc         = 50
    ecutrho         = 400
    input_dft  	    = 'vdW-DF'
    occupations     = 'smearing'
    smearing        = 'marzari-vanderbilt'
    degauss         = 0.02
/

&electrons
    conv_thr        = 1.0D-8
/

&ions

/

&cell

/

ATOMIC_SPECIES
 Au 196.966569 Au.pbe-nd-van.UPF

K_POINTS automatic
2 2 3 1 1 1


ATOMIC_POSITIONS (angstrom) 
Au	0.000000	0.000000	0.000000	0         0         0
Au	4.253738	0.000000	0.000000	0         0         0
Au	8.507476	0.000000	0.000000	0         0         0
Au	2.126869	2.126869	0.000000	0         0         0
Au	6.380607	2.126869	0.000000	0         0         0
Au	10.634344	2.126869	0.000000	0         0         0
Au	0.000000	4.253738	0.000000	0         0         0
Au	4.253738	4.253738	0.000000	0         0         0
Au	8.507476	4.253738	0.000000	0         0         0
Au	2.126869	6.380607	0.000000	0         0         0
Au	6.380607	6.380607	0.000000	0         0         0
Au	10.634344	6.380607	0.000000	0         0         0
Au	0.000000	8.507476	0.000000	0         0         0
Au	4.253738	8.507476	0.000000	0         0         0
Au	8.507476	8.507476	0.000000	0         0         0
Au	2.126869	10.634344	0.000000	0         0         0
Au	6.380607	10.634344	0.000000	0         0         0
Au	10.634344	10.634344	0.000000	0         0         0
Au	2.126869	0.000000	2.126869	0         0         0
Au	6.380607	0.000000	2.126869	0         0         0
Au	10.634344	0.000000	2.126869	0         0         0
Au	0.000000	2.126869	2.126869	0         0         0
Au	4.253738	2.126869	2.126869	0         0         0
Au	8.507476	2.126869	2.126869	0         0         0
Au	2.126869	4.253738	2.126869	0         0         0
Au	6.380607	4.253738	2.126869	0         0         0
Au	10.634344	4.253738	2.126869	0         0         0
Au	0.000000	6.380607	2.126869	0         0         0
Au	4.253738	6.380607	2.126869	0         0         0
Au	8.507476	6.380607	2.126869	0         0         0
Au	2.126869	8.507476	2.126869	0         0         0
Au	6.380607	8.507476	2.126869	0         0         0
Au	10.634344	8.507476	2.126869	0         0         0
Au	0.000000	10.634344	2.126869	0         0         0
Au	4.253738	10.634344	2.126869	0         0         0
Au	8.507476	10.634344	2.126869	0         0         0
Au	0.000000	0.000000	4.257869	1         1         1
Au	4.253738	0.000000	4.257869	1         1         1
Au	8.507476	0.000000	4.257869	1         1         1
Au	0.000000	4.253738	4.257869	1         1         1
Au	4.253738	4.253738	4.257869	1         1         1
Au	8.507476	4.253738	4.257869	1         1         1
Au	0.000000	8.507476	4.257869	1         1         1
Au	4.253738	8.507476	4.257869	1         1         1
Au	8.507476	8.507476	4.257869	1         1         1
Au	2.126869	2.126869	4.257869	1         1         1
Au	6.380607	2.126869	4.257869	1         1         1
Au	10.634344	2.126869	4.257869	1         1         1
Au	2.126869	6.380607	4.257869	1         1         1
Au	6.380607	6.380607	4.257869	1         1         1
Au	10.634344	6.380607	4.257869	1         1         1
Au	2.126869	10.634344	4.257869	1         1         1
Au	6.380607	10.634344	4.257869	1         1         1
Au	10.634344	10.634344	4.257869	1         1         1
Au	2.126869	0.000000	6.374381	1         1         1
Au	6.380607	0.000000	6.374381	1         1         1
Au	10.634344	0.000000	6.374381	1         1         1
Au	0.000000	2.126869	6.374381	1         1         1
Au	4.253738	2.126869	6.374381	1         1         1
Au	8.507476	2.126869	6.374381	1         1         1
Au	2.126869	4.253738	6.374381	1         1         1
Au	6.380607	4.253738	6.374381	1         1         1
Au	10.634344	4.253738	6.374381	1         1         1
Au	0.000000	6.380607	6.374381	1         1         1
Au	4.253738	6.380607	6.374381	1         1         1
Au	8.507476	6.380607	6.374381	1         1         1
Au	2.126869	8.507476	6.374381	1         1         1
Au	6.380607	8.507476	6.374381	1         1         1
Au	10.634344	8.507476	6.374381	1         1         1
Au	0.000000	10.634344	6.374381	1         1         1
Au	4.253738	10.634344	6.374381	1         1         1
Au	8.507476	10.634344	6.374381	1         1         1

