&control
    title                   = 'top.O1.Au62.d.2.6.phi.45.psi.0'
    calculation             = 'scf'
    restart_mode            = 'from_scratch'
    pseudo_dir              = '/home/scc/andrejb/qe/pseudo/'
    outdir                  = '/home/scc/andrejb/qe/tempdir/'
    prefix                  = '9873264'
    verbosity               = 'default'
/
 
&system
    ibrav           = 8 
    celldm(1)       = 24.1232766176
    celldm(2)       = 1
    celldm(3)       = 2

    nat             = 75
    ntyp            = 3

    ecutwfc         = 50
    ecutrho         = 400
    input_dft  	    = 'vdW-DF'
    occupations     = 'smearing'
    smearing        = 'marzari-vanderbilt'
    degauss         = 0.02
/

&electrons
    conv_thr        = 1.0D-8
/

&ions

/

&cell

/

ATOMIC_SPECIES
 Au 196.966569 Au.pbe-nd-van.UPF
 H        1.01 H.pbe-van_ak.UPF
 O       16.00 O.pbe-van_ak.UPF

K_POINTS automatic
2 2 3 1 1 1


ATOMIC_POSITIONS (angstrom) 
O   6.380604810  4.253735890  8.974044687
H   6.309239524  3.475202800  9.554796587
H   6.449645081  5.008825461  9.584971018
Au  0.000000000  0.000000000  0.000000000
Au  4.253738000  0.000000000  0.000000000
Au  8.507476000  0.000000000  0.000000000
Au  2.126869000  2.126869000  0.000000000
Au  6.380607000  2.126869000  0.000000000
Au 10.634344000  2.126869000  0.000000000
Au  0.000000000  4.253738000  0.000000000
Au  4.253738000  4.253738000  0.000000000
Au  8.507476000  4.253738000  0.000000000
Au  2.126869000  6.380607000  0.000000000
Au  6.380607000  6.380607000  0.000000000
Au 10.634344000  6.380607000  0.000000000
Au  0.000000000  8.507476000  0.000000000
Au  4.253738000  8.507476000  0.000000000
Au  8.507476000  8.507476000  0.000000000
Au  2.126869000 10.634344000  0.000000000
Au  6.380607000 10.634344000  0.000000000
Au 10.634344000 10.634344000  0.000000000
Au  2.126869000  0.000000000  2.126869000
Au  6.380607000  0.000000000  2.126869000
Au 10.634344000  0.000000000  2.126869000
Au  0.000000000  2.126869000  2.126869000
Au  4.253738000  2.126869000  2.126869000
Au  8.507476000  2.126869000  2.126869000
Au  2.126869000  4.253738000  2.126869000
Au  6.380607000  4.253738000  2.126869000
Au 10.634344000  4.253738000  2.126869000
Au  0.000000000  6.380607000  2.126869000
Au  4.253738000  6.380607000  2.126869000
Au  8.507476000  6.380607000  2.126869000
Au  2.126869000  8.507476000  2.126869000
Au  6.380607000  8.507476000  2.126869000
Au 10.634344000  8.507476000  2.126869000
Au  0.000000000 10.634344000  2.126869000
Au  4.253738000 10.634344000  2.126869000
Au  8.507476000 10.634344000  2.126869000
Au -0.000231899 -0.000231899  4.257900259
Au  4.253734608 -0.000230451  4.257893418
Au  8.507492151 -0.000233495  4.257904766
Au -0.000230451  4.253734608  4.257893418
Au  4.253734872  4.253734872  4.257887922
Au  8.507489223  4.253735714  4.257899972
Au -0.000233495  8.507492151  4.257904766
Au  4.253735714  8.507489223  4.257899972
Au  8.507490970  8.507490970  4.257910325
Au  2.126854284  2.126854284  4.257906940
Au  6.380600017  2.126855061  4.257899048
Au 10.634586601  2.126852368  4.257903711
Au  2.126855061  6.380600017  4.257899048
Au  6.380601302  6.380601302  4.257890644
Au 10.634584097  6.380601789  4.257895413
Au  2.126852368 10.634586601  4.257903711
Au  6.380601789 10.634584097  4.257895413
Au 10.634585069 10.634585069  4.257900809
Au  2.126863116 -0.000141616  6.373929777
Au  6.380603693 -0.000142418  6.373934377
Au 10.634494877 -0.000142245  6.373820138
Au -0.000141616  2.126863116  6.373929777
Au  4.253733333  2.126865567  6.374044528
Au  8.507479448  2.126865512  6.374047422
Au  2.126865567  4.253733333  6.374044528
Au  6.380604810  4.253735890  6.374044687
Au 10.634492342  4.253734512  6.373939184
Au -0.000142418  6.380603693  6.373934377
Au  4.253735890  6.380604810  6.374044687
Au  8.507478446  6.380605875  6.374047284
Au  2.126865512  8.507479448  6.374047422
Au  6.380605875  8.507478446  6.374047284
Au 10.634491790  8.507480400  6.373938586
Au -0.000142245 10.634494877  6.373820138
Au  4.253734512 10.634492342  6.373939184
Au  8.507480400 10.634491790  6.373938586
