fit comp noflags 
cell 
12.761226 12.761226 25.522451 90.000000 90.000000 90.000000 
cartesian 
O   3.411224  5.500266  9.300973
H   3.189236  5.315394  8.371248
H   2.775373  4.970954  9.813856
Au  0.000000  0.000000  0.000000
Au  4.252317  0.000000  0.000000
Au  8.504635  0.000000  0.000000
Au  2.126159  2.126159  0.000000
Au  6.378477  2.126159  0.000000
Au 10.630793  2.126159  0.000000
Au  0.000000  4.252317  0.000000
Au  4.252317  4.252317  0.000000
Au  8.504635  4.252317  0.000000
Au  2.126159  6.378477  0.000000
Au  6.378477  6.378477  0.000000
Au 10.630793  6.378477  0.000000
Au  0.000000  8.504635  0.000000
Au  4.252317  8.504635  0.000000
Au  8.504635  8.504635  0.000000
Au  2.126159 10.630793  0.000000
Au  6.378477 10.630793  0.000000
Au 10.630793 10.630793  0.000000
Au  2.126159  0.000000  2.126159
Au  6.378477  0.000000  2.126159
Au 10.630793  0.000000  2.126159
Au  0.000000  2.126159  2.126159
Au  4.252317  2.126159  2.126159
Au  8.504635  2.126159  2.126159
Au  2.126159  4.252317  2.126159
Au  6.378477  4.252317  2.126159
Au 10.630793  4.252317  2.126159
Au  0.000000  6.378477  2.126159
Au  4.252317  6.378477  2.126159
Au  8.504635  6.378477  2.126159
Au  2.126159  8.504635  2.126159
Au  6.378477  8.504635  2.126159
Au 10.630793  8.504635  2.126159
Au  0.000000 10.630793  2.126159
Au  4.252317 10.630793  2.126159
Au  8.504635 10.630793  2.126159
Au -0.000232 -0.000232  4.256479
Au  4.252315 -0.000231  4.256472
Au  8.504651 -0.000234  4.256483
Au -0.000231  4.252315  4.256472
Au  4.252315  4.252315  4.256466
Au  8.504649  4.252315  4.256477
Au -0.000234  8.504651  4.256483
Au  4.252315  8.504649  4.256477
Au  8.504650  8.504650  4.256489
Au  2.126144  2.126144  4.256485
Au  6.378469  2.126145  4.256477
Au 10.631035  2.126143  4.256481
Au  2.126145  6.378469  4.256477
Au  6.378472  6.378472  4.256469
Au 10.631034  6.378472  4.256474
Au  2.126143 10.631035  4.256481
Au  6.378472 10.631034  4.256474
Au 10.631034 10.631034  4.256479
Au  2.126153 -0.000142  6.371801
Au  6.378473 -0.000143  6.371806
Au 10.630943 -0.000142  6.371691
Au -0.000142  2.126153  6.371801
Au  4.252312  2.126155  6.371916
Au  8.504638  2.126155  6.371919
Au  2.126155  4.252312  6.371916
Au  6.378474  4.252316  6.371916
Au 10.630941  4.252315  6.371810
Au -0.000143  6.378473  6.371806
Au  4.252316  6.378474  6.371916
Au  8.504638  6.378475  6.371919
Au  2.126155  8.504638  6.371919
Au  6.378475  8.504638  6.371919
Au 10.630941  8.504640  6.371810
Au -0.000142 10.630943  6.371691
Au  4.252315 10.630941  6.371810
Au  8.504640 10.630941  6.371810
observable
energy ev
-0.108868942043
weight 
0.56534246009
end

cell 
12.761226 12.761226 25.522451 90.000000 90.000000 90.000000 
cartesian 
O   3.411224  4.385668  8.556121
H   3.189236  5.315394  8.371248
H   2.775373  3.872786  8.026810
Au  0.000000  0.000000  0.000000
Au  4.252317  0.000000  0.000000
Au  8.504635  0.000000  0.000000
Au  2.126159  2.126159  0.000000
Au  6.378477  2.126159  0.000000
Au 10.630793  2.126159  0.000000
Au  0.000000  4.252317  0.000000
Au  4.252317  4.252317  0.000000
Au  8.504635  4.252317  0.000000
Au  2.126159  6.378477  0.000000
Au  6.378477  6.378477  0.000000
Au 10.630793  6.378477  0.000000
Au  0.000000  8.504635  0.000000
Au  4.252317  8.504635  0.000000
Au  8.504635  8.504635  0.000000
Au  2.126159 10.630793  0.000000
Au  6.378477 10.630793  0.000000
Au 10.630793 10.630793  0.000000
Au  2.126159  0.000000  2.126159
Au  6.378477  0.000000  2.126159
Au 10.630793  0.000000  2.126159
Au  0.000000  2.126159  2.126159
Au  4.252317  2.126159  2.126159
Au  8.504635  2.126159  2.126159
Au  2.126159  4.252317  2.126159
Au  6.378477  4.252317  2.126159
Au 10.630793  4.252317  2.126159
Au  0.000000  6.378477  2.126159
Au  4.252317  6.378477  2.126159
Au  8.504635  6.378477  2.126159
Au  2.126159  8.504635  2.126159
Au  6.378477  8.504635  2.126159
Au 10.630793  8.504635  2.126159
Au  0.000000 10.630793  2.126159
Au  4.252317 10.630793  2.126159
Au  8.504635 10.630793  2.126159
Au -0.000232 -0.000232  4.256479
Au  4.252315 -0.000231  4.256472
Au  8.504651 -0.000234  4.256483
Au -0.000231  4.252315  4.256472
Au  4.252315  4.252315  4.256466
Au  8.504649  4.252315  4.256477
Au -0.000234  8.504651  4.256483
Au  4.252315  8.504649  4.256477
Au  8.504650  8.504650  4.256489
Au  2.126144  2.126144  4.256485
Au  6.378469  2.126145  4.256477
Au 10.631035  2.126143  4.256481
Au  2.126145  6.378469  4.256477
Au  6.378472  6.378472  4.256469
Au 10.631034  6.378472  4.256474
Au  2.126143 10.631035  4.256481
Au  6.378472 10.631034  4.256474
Au 10.631034 10.631034  4.256479
Au  2.126153 -0.000142  6.371801
Au  6.378473 -0.000143  6.371806
Au 10.630943 -0.000142  6.371691
Au -0.000142  2.126153  6.371801
Au  4.252312  2.126155  6.371916
Au  8.504638  2.126155  6.371919
Au  2.126155  4.252312  6.371916
Au  6.378474  4.252316  6.371916
Au 10.630941  4.252315  6.371810
Au -0.000143  6.378473  6.371806
Au  4.252316  6.378474  6.371916
Au  8.504638  6.378475  6.371919
Au  2.126155  8.504638  6.371919
Au  6.378475  8.504638  6.371919
Au 10.630941  8.504640  6.371810
Au -0.000142 10.630943  6.371691
Au  4.252315 10.630941  6.371810
Au  8.504640 10.630941  6.371810
observable
energy ev
0.730093025981
weight 
0.146431131438
end

cell 
12.761226 12.761226 25.522451 90.000000 90.000000 90.000000 
cartesian 
O   3.215480  5.603087  9.300973
H   3.189236  5.315394  8.371248
H   3.140146  4.779194  9.813856
Au  0.000000  0.000000  0.000000
Au  4.252317  0.000000  0.000000
Au  8.504635  0.000000  0.000000
Au  2.126159  2.126159  0.000000
Au  6.378477  2.126159  0.000000
Au 10.630793  2.126159  0.000000
Au  0.000000  4.252317  0.000000
Au  4.252317  4.252317  0.000000
Au  8.504635  4.252317  0.000000
Au  2.126159  6.378477  0.000000
Au  6.378477  6.378477  0.000000
Au 10.630793  6.378477  0.000000
Au  0.000000  8.504635  0.000000
Au  4.252317  8.504635  0.000000
Au  8.504635  8.504635  0.000000
Au  2.126159 10.630793  0.000000
Au  6.378477 10.630793  0.000000
Au 10.630793 10.630793  0.000000
Au  2.126159  0.000000  2.126159
Au  6.378477  0.000000  2.126159
Au 10.630793  0.000000  2.126159
Au  0.000000  2.126159  2.126159
Au  4.252317  2.126159  2.126159
Au  8.504635  2.126159  2.126159
Au  2.126159  4.252317  2.126159
Au  6.378477  4.252317  2.126159
Au 10.630793  4.252317  2.126159
Au  0.000000  6.378477  2.126159
Au  4.252317  6.378477  2.126159
Au  8.504635  6.378477  2.126159
Au  2.126159  8.504635  2.126159
Au  6.378477  8.504635  2.126159
Au 10.630793  8.504635  2.126159
Au  0.000000 10.630793  2.126159
Au  4.252317 10.630793  2.126159
Au  8.504635 10.630793  2.126159
Au -0.000232 -0.000232  4.256479
Au  4.252315 -0.000231  4.256472
Au  8.504651 -0.000234  4.256483
Au -0.000231  4.252315  4.256472
Au  4.252315  4.252315  4.256466
Au  8.504649  4.252315  4.256477
Au -0.000234  8.504651  4.256483
Au  4.252315  8.504649  4.256477
Au  8.504650  8.504650  4.256489
Au  2.126144  2.126144  4.256485
Au  6.378469  2.126145  4.256477
Au 10.631035  2.126143  4.256481
Au  2.126145  6.378469  4.256477
Au  6.378472  6.378472  4.256469
Au 10.631034  6.378472  4.256474
Au  2.126143 10.631035  4.256481
Au  6.378472 10.631034  4.256474
Au 10.631034 10.631034  4.256479
Au  2.126153 -0.000142  6.371801
Au  6.378473 -0.000143  6.371806
Au 10.630943 -0.000142  6.371691
Au -0.000142  2.126153  6.371801
Au  4.252312  2.126155  6.371916
Au  8.504638  2.126155  6.371919
Au  2.126155  4.252312  6.371916
Au  6.378474  4.252316  6.371916
Au 10.630941  4.252315  6.371810
Au -0.000143  6.378473  6.371806
Au  4.252316  6.378474  6.371916
Au  8.504638  6.378475  6.371919
Au  2.126155  8.504638  6.371919
Au  6.378475  8.504638  6.371919
Au 10.630941  8.504640  6.371810
Au -0.000142 10.630943  6.371691
Au  4.252315 10.630941  6.371810
Au  8.504640 10.630941  6.371810
observable
energy ev
-0.121304545013
weight 
0.572705958163
end

cell 
12.761226 12.761226 25.522451 90.000000 90.000000 90.000000 
cartesian 
O   3.215480  4.385668  8.658942
H   3.189236  5.315394  8.371248
H   3.140146  3.872786  7.835048
Au  0.000000  0.000000  0.000000
Au  4.252317  0.000000  0.000000
Au  8.504635  0.000000  0.000000
Au  2.126159  2.126159  0.000000
Au  6.378477  2.126159  0.000000
Au 10.630793  2.126159  0.000000
Au  0.000000  4.252317  0.000000
Au  4.252317  4.252317  0.000000
Au  8.504635  4.252317  0.000000
Au  2.126159  6.378477  0.000000
Au  6.378477  6.378477  0.000000
Au 10.630793  6.378477  0.000000
Au  0.000000  8.504635  0.000000
Au  4.252317  8.504635  0.000000
Au  8.504635  8.504635  0.000000
Au  2.126159 10.630793  0.000000
Au  6.378477 10.630793  0.000000
Au 10.630793 10.630793  0.000000
Au  2.126159  0.000000  2.126159
Au  6.378477  0.000000  2.126159
Au 10.630793  0.000000  2.126159
Au  0.000000  2.126159  2.126159
Au  4.252317  2.126159  2.126159
Au  8.504635  2.126159  2.126159
Au  2.126159  4.252317  2.126159
Au  6.378477  4.252317  2.126159
Au 10.630793  4.252317  2.126159
Au  0.000000  6.378477  2.126159
Au  4.252317  6.378477  2.126159
Au  8.504635  6.378477  2.126159
Au  2.126159  8.504635  2.126159
Au  6.378477  8.504635  2.126159
Au 10.630793  8.504635  2.126159
Au  0.000000 10.630793  2.126159
Au  4.252317 10.630793  2.126159
Au  8.504635 10.630793  2.126159
Au -0.000232 -0.000232  4.256479
Au  4.252315 -0.000231  4.256472
Au  8.504651 -0.000234  4.256483
Au -0.000231  4.252315  4.256472
Au  4.252315  4.252315  4.256466
Au  8.504649  4.252315  4.256477
Au -0.000234  8.504651  4.256483
Au  4.252315  8.504649  4.256477
Au  8.504650  8.504650  4.256489
Au  2.126144  2.126144  4.256485
Au  6.378469  2.126145  4.256477
Au 10.631035  2.126143  4.256481
Au  2.126145  6.378469  4.256477
Au  6.378472  6.378472  4.256469
Au 10.631034  6.378472  4.256474
Au  2.126143 10.631035  4.256481
Au  6.378472 10.631034  4.256474
Au 10.631034 10.631034  4.256479
Au  2.126153 -0.000142  6.371801
Au  6.378473 -0.000143  6.371806
Au 10.630943 -0.000142  6.371691
Au -0.000142  2.126153  6.371801
Au  4.252312  2.126155  6.371916
Au  8.504638  2.126155  6.371919
Au  2.126155  4.252312  6.371916
Au  6.378474  4.252316  6.371916
Au 10.630941  4.252315  6.371810
Au -0.000143  6.378473  6.371806
Au  4.252316  6.378474  6.371916
Au  8.504638  6.378475  6.371919
Au  2.126155  8.504638  6.371919
Au  6.378475  8.504638  6.371919
Au 10.630941  8.504640  6.371810
Au -0.000142 10.630943  6.371691
Au  4.252315 10.630941  6.371810
Au  8.504640 10.630941  6.371810
observable
energy ev
0.678102137361
weight 
0.162828066168
end

cell 
12.761226 12.761226 25.522451 90.000000 90.000000 90.000000 
cartesian 
O   3.411224  5.500266  9.600874
H   3.189236  5.315394  8.671148
H   2.775373  4.970954 10.113756
Au  0.000000  0.000000  0.000000
Au  4.252317  0.000000  0.000000
Au  8.504635  0.000000  0.000000
Au  2.126159  2.126159  0.000000
Au  6.378477  2.126159  0.000000
Au 10.630793  2.126159  0.000000
Au  0.000000  4.252317  0.000000
Au  4.252317  4.252317  0.000000
Au  8.504635  4.252317  0.000000
Au  2.126159  6.378477  0.000000
Au  6.378477  6.378477  0.000000
Au 10.630793  6.378477  0.000000
Au  0.000000  8.504635  0.000000
Au  4.252317  8.504635  0.000000
Au  8.504635  8.504635  0.000000
Au  2.126159 10.630793  0.000000
Au  6.378477 10.630793  0.000000
Au 10.630793 10.630793  0.000000
Au  2.126159  0.000000  2.126159
Au  6.378477  0.000000  2.126159
Au 10.630793  0.000000  2.126159
Au  0.000000  2.126159  2.126159
Au  4.252317  2.126159  2.126159
Au  8.504635  2.126159  2.126159
Au  2.126159  4.252317  2.126159
Au  6.378477  4.252317  2.126159
Au 10.630793  4.252317  2.126159
Au  0.000000  6.378477  2.126159
Au  4.252317  6.378477  2.126159
Au  8.504635  6.378477  2.126159
Au  2.126159  8.504635  2.126159
Au  6.378477  8.504635  2.126159
Au 10.630793  8.504635  2.126159
Au  0.000000 10.630793  2.126159
Au  4.252317 10.630793  2.126159
Au  8.504635 10.630793  2.126159
Au -0.000232 -0.000232  4.256479
Au  4.252315 -0.000231  4.256472
Au  8.504651 -0.000234  4.256483
Au -0.000231  4.252315  4.256472
Au  4.252315  4.252315  4.256466
Au  8.504649  4.252315  4.256477
Au -0.000234  8.504651  4.256483
Au  4.252315  8.504649  4.256477
Au  8.504650  8.504650  4.256489
Au  2.126144  2.126144  4.256485
Au  6.378469  2.126145  4.256477
Au 10.631035  2.126143  4.256481
Au  2.126145  6.378469  4.256477
Au  6.378472  6.378472  4.256469
Au 10.631034  6.378472  4.256474
Au  2.126143 10.631035  4.256481
Au  6.378472 10.631034  4.256474
Au 10.631034 10.631034  4.256479
Au  2.126153 -0.000142  6.371801
Au  6.378473 -0.000143  6.371806
Au 10.630943 -0.000142  6.371691
Au -0.000142  2.126153  6.371801
Au  4.252312  2.126155  6.371916
Au  8.504638  2.126155  6.371919
Au  2.126155  4.252312  6.371916
Au  6.378474  4.252316  6.371916
Au 10.630941  4.252315  6.371810
Au -0.000143  6.378473  6.371806
Au  4.252316  6.378474  6.371916
Au  8.504638  6.378475  6.371919
Au  2.126155  8.504638  6.371919
Au  6.378475  8.504638  6.371919
Au 10.630941  8.504640  6.371810
Au -0.000142 10.630943  6.371691
Au  4.252315 10.630941  6.371810
Au  8.504640 10.630941  6.371810
observable
energy ev
-0.177520545418
weight 
0.605548456446
end

cell 
12.761226 12.761226 25.522451 90.000000 90.000000 90.000000 
cartesian 
O   3.411224  4.385668  8.856021
H   3.189236  5.315394  8.671148
H   2.775373  3.872786  8.326709
Au  0.000000  0.000000  0.000000
Au  4.252317  0.000000  0.000000
Au  8.504635  0.000000  0.000000
Au  2.126159  2.126159  0.000000
Au  6.378477  2.126159  0.000000
Au 10.630793  2.126159  0.000000
Au  0.000000  4.252317  0.000000
Au  4.252317  4.252317  0.000000
Au  8.504635  4.252317  0.000000
Au  2.126159  6.378477  0.000000
Au  6.378477  6.378477  0.000000
Au 10.630793  6.378477  0.000000
Au  0.000000  8.504635  0.000000
Au  4.252317  8.504635  0.000000
Au  8.504635  8.504635  0.000000
Au  2.126159 10.630793  0.000000
Au  6.378477 10.630793  0.000000
Au 10.630793 10.630793  0.000000
Au  2.126159  0.000000  2.126159
Au  6.378477  0.000000  2.126159
Au 10.630793  0.000000  2.126159
Au  0.000000  2.126159  2.126159
Au  4.252317  2.126159  2.126159
Au  8.504635  2.126159  2.126159
Au  2.126159  4.252317  2.126159
Au  6.378477  4.252317  2.126159
Au 10.630793  4.252317  2.126159
Au  0.000000  6.378477  2.126159
Au  4.252317  6.378477  2.126159
Au  8.504635  6.378477  2.126159
Au  2.126159  8.504635  2.126159
Au  6.378477  8.504635  2.126159
Au 10.630793  8.504635  2.126159
Au  0.000000 10.630793  2.126159
Au  4.252317 10.630793  2.126159
Au  8.504635 10.630793  2.126159
Au -0.000232 -0.000232  4.256479
Au  4.252315 -0.000231  4.256472
Au  8.504651 -0.000234  4.256483
Au -0.000231  4.252315  4.256472
Au  4.252315  4.252315  4.256466
Au  8.504649  4.252315  4.256477
Au -0.000234  8.504651  4.256483
Au  4.252315  8.504649  4.256477
Au  8.504650  8.504650  4.256489
Au  2.126144  2.126144  4.256485
Au  6.378469  2.126145  4.256477
Au 10.631035  2.126143  4.256481
Au  2.126145  6.378469  4.256477
Au  6.378472  6.378472  4.256469
Au 10.631034  6.378472  4.256474
Au  2.126143 10.631035  4.256481
Au  6.378472 10.631034  4.256474
Au 10.631034 10.631034  4.256479
Au  2.126153 -0.000142  6.371801
Au  6.378473 -0.000143  6.371806
Au 10.630943 -0.000142  6.371691
Au -0.000142  2.126153  6.371801
Au  4.252312  2.126155  6.371916
Au  8.504638  2.126155  6.371919
Au  2.126155  4.252312  6.371916
Au  6.378474  4.252316  6.371916
Au 10.630941  4.252315  6.371810
Au -0.000143  6.378473  6.371806
Au  4.252316  6.378474  6.371916
Au  8.504638  6.378475  6.371919
Au  2.126155  8.504638  6.371919
Au  6.378475  8.504638  6.371919
Au 10.630941  8.504640  6.371810
Au -0.000142 10.630943  6.371691
Au  4.252315 10.630941  6.371810
Au  8.504640 10.630941  6.371810
observable
energy ev
0.145492473064
weight 
0.413066286212
end

cell 
12.761226 12.761226 25.522451 90.000000 90.000000 90.000000 
cartesian 
O   3.215480  5.603087  9.600874
H   3.189236  5.315394  8.671148
H   3.140146  4.779194 10.113756
Au  0.000000  0.000000  0.000000
Au  4.252317  0.000000  0.000000
Au  8.504635  0.000000  0.000000
Au  2.126159  2.126159  0.000000
Au  6.378477  2.126159  0.000000
Au 10.630793  2.126159  0.000000
Au  0.000000  4.252317  0.000000
Au  4.252317  4.252317  0.000000
Au  8.504635  4.252317  0.000000
Au  2.126159  6.378477  0.000000
Au  6.378477  6.378477  0.000000
Au 10.630793  6.378477  0.000000
Au  0.000000  8.504635  0.000000
Au  4.252317  8.504635  0.000000
Au  8.504635  8.504635  0.000000
Au  2.126159 10.630793  0.000000
Au  6.378477 10.630793  0.000000
Au 10.630793 10.630793  0.000000
Au  2.126159  0.000000  2.126159
Au  6.378477  0.000000  2.126159
Au 10.630793  0.000000  2.126159
Au  0.000000  2.126159  2.126159
Au  4.252317  2.126159  2.126159
Au  8.504635  2.126159  2.126159
Au  2.126159  4.252317  2.126159
Au  6.378477  4.252317  2.126159
Au 10.630793  4.252317  2.126159
Au  0.000000  6.378477  2.126159
Au  4.252317  6.378477  2.126159
Au  8.504635  6.378477  2.126159
Au  2.126159  8.504635  2.126159
Au  6.378477  8.504635  2.126159
Au 10.630793  8.504635  2.126159
Au  0.000000 10.630793  2.126159
Au  4.252317 10.630793  2.126159
Au  8.504635 10.630793  2.126159
Au -0.000232 -0.000232  4.256479
Au  4.252315 -0.000231  4.256472
Au  8.504651 -0.000234  4.256483
Au -0.000231  4.252315  4.256472
Au  4.252315  4.252315  4.256466
Au  8.504649  4.252315  4.256477
Au -0.000234  8.504651  4.256483
Au  4.252315  8.504649  4.256477
Au  8.504650  8.504650  4.256489
Au  2.126144  2.126144  4.256485
Au  6.378469  2.126145  4.256477
Au 10.631035  2.126143  4.256481
Au  2.126145  6.378469  4.256477
Au  6.378472  6.378472  4.256469
Au 10.631034  6.378472  4.256474
Au  2.126143 10.631035  4.256481
Au  6.378472 10.631034  4.256474
Au 10.631034 10.631034  4.256479
Au  2.126153 -0.000142  6.371801
Au  6.378473 -0.000143  6.371806
Au 10.630943 -0.000142  6.371691
Au -0.000142  2.126153  6.371801
Au  4.252312  2.126155  6.371916
Au  8.504638  2.126155  6.371919
Au  2.126155  4.252312  6.371916
Au  6.378474  4.252316  6.371916
Au 10.630941  4.252315  6.371810
Au -0.000143  6.378473  6.371806
Au  4.252316  6.378474  6.371916
Au  8.504638  6.378475  6.371919
Au  2.126155  8.504638  6.371919
Au  6.378475  8.504638  6.371919
Au 10.630941  8.504640  6.371810
Au -0.000142 10.630943  6.371691
Au  4.252315 10.630941  6.371810
Au  8.504640 10.630941  6.371810
observable
energy ev
-0.182944726854
weight 
0.608672470345
end

cell 
12.761226 12.761226 25.522451 90.000000 90.000000 90.000000 
cartesian 
O   3.215480  4.385668  8.958842
H   3.189236  5.315394  8.671148
H   3.140146  3.872786  8.134948
Au  0.000000  0.000000  0.000000
Au  4.252317  0.000000  0.000000
Au  8.504635  0.000000  0.000000
Au  2.126159  2.126159  0.000000
Au  6.378477  2.126159  0.000000
Au 10.630793  2.126159  0.000000
Au  0.000000  4.252317  0.000000
Au  4.252317  4.252317  0.000000
Au  8.504635  4.252317  0.000000
Au  2.126159  6.378477  0.000000
Au  6.378477  6.378477  0.000000
Au 10.630793  6.378477  0.000000
Au  0.000000  8.504635  0.000000
Au  4.252317  8.504635  0.000000
Au  8.504635  8.504635  0.000000
Au  2.126159 10.630793  0.000000
Au  6.378477 10.630793  0.000000
Au 10.630793 10.630793  0.000000
Au  2.126159  0.000000  2.126159
Au  6.378477  0.000000  2.126159
Au 10.630793  0.000000  2.126159
Au  0.000000  2.126159  2.126159
Au  4.252317  2.126159  2.126159
Au  8.504635  2.126159  2.126159
Au  2.126159  4.252317  2.126159
Au  6.378477  4.252317  2.126159
Au 10.630793  4.252317  2.126159
Au  0.000000  6.378477  2.126159
Au  4.252317  6.378477  2.126159
Au  8.504635  6.378477  2.126159
Au  2.126159  8.504635  2.126159
Au  6.378477  8.504635  2.126159
Au 10.630793  8.504635  2.126159
Au  0.000000 10.630793  2.126159
Au  4.252317 10.630793  2.126159
Au  8.504635 10.630793  2.126159
Au -0.000232 -0.000232  4.256479
Au  4.252315 -0.000231  4.256472
Au  8.504651 -0.000234  4.256483
Au -0.000231  4.252315  4.256472
Au  4.252315  4.252315  4.256466
Au  8.504649  4.252315  4.256477
Au -0.000234  8.504651  4.256483
Au  4.252315  8.504649  4.256477
Au  8.504650  8.504650  4.256489
Au  2.126144  2.126144  4.256485
Au  6.378469  2.126145  4.256477
Au 10.631035  2.126143  4.256481
Au  2.126145  6.378469  4.256477
Au  6.378472  6.378472  4.256469
Au 10.631034  6.378472  4.256474
Au  2.126143 10.631035  4.256481
Au  6.378472 10.631034  4.256474
Au 10.631034 10.631034  4.256479
Au  2.126153 -0.000142  6.371801
Au  6.378473 -0.000143  6.371806
Au 10.630943 -0.000142  6.371691
Au -0.000142  2.126153  6.371801
Au  4.252312  2.126155  6.371916
Au  8.504638  2.126155  6.371919
Au  2.126155  4.252312  6.371916
Au  6.378474  4.252316  6.371916
Au 10.630941  4.252315  6.371810
Au -0.000143  6.378473  6.371806
Au  4.252316  6.378474  6.371916
Au  8.504638  6.378475  6.371919
Au  2.126155  8.504638  6.371919
Au  6.378475  8.504638  6.371919
Au 10.630941  8.504640  6.371810
Au -0.000142 10.630943  6.371691
Au  4.252315 10.630941  6.371810
Au  8.504640 10.630941  6.371810
observable
energy ev
0.133681235311
weight 
0.419997273785
end

cell 
12.761226 12.761226 25.522451 90.000000 90.000000 90.000000 
cartesian 
O   3.411224  5.500266 11.600206
H   3.189236  5.315394 10.670480
H   2.775373  4.970954 12.113088
Au  0.000000  0.000000  0.000000
Au  4.252317  0.000000  0.000000
Au  8.504635  0.000000  0.000000
Au  2.126159  2.126159  0.000000
Au  6.378477  2.126159  0.000000
Au 10.630793  2.126159  0.000000
Au  0.000000  4.252317  0.000000
Au  4.252317  4.252317  0.000000
Au  8.504635  4.252317  0.000000
Au  2.126159  6.378477  0.000000
Au  6.378477  6.378477  0.000000
Au 10.630793  6.378477  0.000000
Au  0.000000  8.504635  0.000000
Au  4.252317  8.504635  0.000000
Au  8.504635  8.504635  0.000000
Au  2.126159 10.630793  0.000000
Au  6.378477 10.630793  0.000000
Au 10.630793 10.630793  0.000000
Au  2.126159  0.000000  2.126159
Au  6.378477  0.000000  2.126159
Au 10.630793  0.000000  2.126159
Au  0.000000  2.126159  2.126159
Au  4.252317  2.126159  2.126159
Au  8.504635  2.126159  2.126159
Au  2.126159  4.252317  2.126159
Au  6.378477  4.252317  2.126159
Au 10.630793  4.252317  2.126159
Au  0.000000  6.378477  2.126159
Au  4.252317  6.378477  2.126159
Au  8.504635  6.378477  2.126159
Au  2.126159  8.504635  2.126159
Au  6.378477  8.504635  2.126159
Au 10.630793  8.504635  2.126159
Au  0.000000 10.630793  2.126159
Au  4.252317 10.630793  2.126159
Au  8.504635 10.630793  2.126159
Au -0.000232 -0.000232  4.256479
Au  4.252315 -0.000231  4.256472
Au  8.504651 -0.000234  4.256483
Au -0.000231  4.252315  4.256472
Au  4.252315  4.252315  4.256466
Au  8.504649  4.252315  4.256477
Au -0.000234  8.504651  4.256483
Au  4.252315  8.504649  4.256477
Au  8.504650  8.504650  4.256489
Au  2.126144  2.126144  4.256485
Au  6.378469  2.126145  4.256477
Au 10.631035  2.126143  4.256481
Au  2.126145  6.378469  4.256477
Au  6.378472  6.378472  4.256469
Au 10.631034  6.378472  4.256474
Au  2.126143 10.631035  4.256481
Au  6.378472 10.631034  4.256474
Au 10.631034 10.631034  4.256479
Au  2.126153 -0.000142  6.371801
Au  6.378473 -0.000143  6.371806
Au 10.630943 -0.000142  6.371691
Au -0.000142  2.126153  6.371801
Au  4.252312  2.126155  6.371916
Au  8.504638  2.126155  6.371919
Au  2.126155  4.252312  6.371916
Au  6.378474  4.252316  6.371916
Au 10.630941  4.252315  6.371810
Au -0.000143  6.378473  6.371806
Au  4.252316  6.378474  6.371916
Au  8.504638  6.378475  6.371919
Au  2.126155  8.504638  6.371919
Au  6.378475  8.504638  6.371919
Au 10.630941  8.504640  6.371810
Au -0.000142 10.630943  6.371691
Au  4.252315 10.630941  6.371810
Au  8.504640 10.630941  6.371810
observable
energy ev
-0.102916995791
weight 
0.561807693848
end

cell 
12.761226 12.761226 25.522451 90.000000 90.000000 90.000000 
cartesian 
O   3.411224  4.385668 10.855353
H   3.189236  5.315394 10.670480
H   2.775373  3.872786 10.326042
Au  0.000000  0.000000  0.000000
Au  4.252317  0.000000  0.000000
Au  8.504635  0.000000  0.000000
Au  2.126159  2.126159  0.000000
Au  6.378477  2.126159  0.000000
Au 10.630793  2.126159  0.000000
Au  0.000000  4.252317  0.000000
Au  4.252317  4.252317  0.000000
Au  8.504635  4.252317  0.000000
Au  2.126159  6.378477  0.000000
Au  6.378477  6.378477  0.000000
Au 10.630793  6.378477  0.000000
Au  0.000000  8.504635  0.000000
Au  4.252317  8.504635  0.000000
Au  8.504635  8.504635  0.000000
Au  2.126159 10.630793  0.000000
Au  6.378477 10.630793  0.000000
Au 10.630793 10.630793  0.000000
Au  2.126159  0.000000  2.126159
Au  6.378477  0.000000  2.126159
Au 10.630793  0.000000  2.126159
Au  0.000000  2.126159  2.126159
Au  4.252317  2.126159  2.126159
Au  8.504635  2.126159  2.126159
Au  2.126159  4.252317  2.126159
Au  6.378477  4.252317  2.126159
Au 10.630793  4.252317  2.126159
Au  0.000000  6.378477  2.126159
Au  4.252317  6.378477  2.126159
Au  8.504635  6.378477  2.126159
Au  2.126159  8.504635  2.126159
Au  6.378477  8.504635  2.126159
Au 10.630793  8.504635  2.126159
Au  0.000000 10.630793  2.126159
Au  4.252317 10.630793  2.126159
Au  8.504635 10.630793  2.126159
Au -0.000232 -0.000232  4.256479
Au  4.252315 -0.000231  4.256472
Au  8.504651 -0.000234  4.256483
Au -0.000231  4.252315  4.256472
Au  4.252315  4.252315  4.256466
Au  8.504649  4.252315  4.256477
Au -0.000234  8.504651  4.256483
Au  4.252315  8.504649  4.256477
Au  8.504650  8.504650  4.256489
Au  2.126144  2.126144  4.256485
Au  6.378469  2.126145  4.256477
Au 10.631035  2.126143  4.256481
Au  2.126145  6.378469  4.256477
Au  6.378472  6.378472  4.256469
Au 10.631034  6.378472  4.256474
Au  2.126143 10.631035  4.256481
Au  6.378472 10.631034  4.256474
Au 10.631034 10.631034  4.256479
Au  2.126153 -0.000142  6.371801
Au  6.378473 -0.000143  6.371806
Au 10.630943 -0.000142  6.371691
Au -0.000142  2.126153  6.371801
Au  4.252312  2.126155  6.371916
Au  8.504638  2.126155  6.371919
Au  2.126155  4.252312  6.371916
Au  6.378474  4.252316  6.371916
Au 10.630941  4.252315  6.371810
Au -0.000143  6.378473  6.371806
Au  4.252316  6.378474  6.371916
Au  8.504638  6.378475  6.371919
Au  2.126155  8.504638  6.371919
Au  6.378475  8.504638  6.371919
Au 10.630941  8.504640  6.371810
Au -0.000142 10.630943  6.371691
Au  4.252315 10.630941  6.371810
Au  8.504640 10.630941  6.371810
observable
energy ev
-0.140670615656
weight 
0.584108180768
end

cell 
12.761226 12.761226 25.522451 90.000000 90.000000 90.000000 
cartesian 
O   3.215480  5.603087 11.600206
H   3.189236  5.315394 10.670480
H   3.140146  4.779194 12.113088
Au  0.000000  0.000000  0.000000
Au  4.252317  0.000000  0.000000
Au  8.504635  0.000000  0.000000
Au  2.126159  2.126159  0.000000
Au  6.378477  2.126159  0.000000
Au 10.630793  2.126159  0.000000
Au  0.000000  4.252317  0.000000
Au  4.252317  4.252317  0.000000
Au  8.504635  4.252317  0.000000
Au  2.126159  6.378477  0.000000
Au  6.378477  6.378477  0.000000
Au 10.630793  6.378477  0.000000
Au  0.000000  8.504635  0.000000
Au  4.252317  8.504635  0.000000
Au  8.504635  8.504635  0.000000
Au  2.126159 10.630793  0.000000
Au  6.378477 10.630793  0.000000
Au 10.630793 10.630793  0.000000
Au  2.126159  0.000000  2.126159
Au  6.378477  0.000000  2.126159
Au 10.630793  0.000000  2.126159
Au  0.000000  2.126159  2.126159
Au  4.252317  2.126159  2.126159
Au  8.504635  2.126159  2.126159
Au  2.126159  4.252317  2.126159
Au  6.378477  4.252317  2.126159
Au 10.630793  4.252317  2.126159
Au  0.000000  6.378477  2.126159
Au  4.252317  6.378477  2.126159
Au  8.504635  6.378477  2.126159
Au  2.126159  8.504635  2.126159
Au  6.378477  8.504635  2.126159
Au 10.630793  8.504635  2.126159
Au  0.000000 10.630793  2.126159
Au  4.252317 10.630793  2.126159
Au  8.504635 10.630793  2.126159
Au -0.000232 -0.000232  4.256479
Au  4.252315 -0.000231  4.256472
Au  8.504651 -0.000234  4.256483
Au -0.000231  4.252315  4.256472
Au  4.252315  4.252315  4.256466
Au  8.504649  4.252315  4.256477
Au -0.000234  8.504651  4.256483
Au  4.252315  8.504649  4.256477
Au  8.504650  8.504650  4.256489
Au  2.126144  2.126144  4.256485
Au  6.378469  2.126145  4.256477
Au 10.631035  2.126143  4.256481
Au  2.126145  6.378469  4.256477
Au  6.378472  6.378472  4.256469
Au 10.631034  6.378472  4.256474
Au  2.126143 10.631035  4.256481
Au  6.378472 10.631034  4.256474
Au 10.631034 10.631034  4.256479
Au  2.126153 -0.000142  6.371801
Au  6.378473 -0.000143  6.371806
Au 10.630943 -0.000142  6.371691
Au -0.000142  2.126153  6.371801
Au  4.252312  2.126155  6.371916
Au  8.504638  2.126155  6.371919
Au  2.126155  4.252312  6.371916
Au  6.378474  4.252316  6.371916
Au 10.630941  4.252315  6.371810
Au -0.000143  6.378473  6.371806
Au  4.252316  6.378474  6.371916
Au  8.504638  6.378475  6.371919
Au  2.126155  8.504638  6.371919
Au  6.378475  8.504638  6.371919
Au 10.630941  8.504640  6.371810
Au -0.000142 10.630943  6.371691
Au  4.252315 10.630941  6.371810
Au  8.504640 10.630941  6.371810
observable
energy ev
-0.102911553506
weight 
0.561804458832
end

cell 
12.761226 12.761226 25.522451 90.000000 90.000000 90.000000 
cartesian 
O   3.215480  4.385668 10.958174
H   3.189236  5.315394 10.670480
H   3.140146  3.872786 10.134280
Au  0.000000  0.000000  0.000000
Au  4.252317  0.000000  0.000000
Au  8.504635  0.000000  0.000000
Au  2.126159  2.126159  0.000000
Au  6.378477  2.126159  0.000000
Au 10.630793  2.126159  0.000000
Au  0.000000  4.252317  0.000000
Au  4.252317  4.252317  0.000000
Au  8.504635  4.252317  0.000000
Au  2.126159  6.378477  0.000000
Au  6.378477  6.378477  0.000000
Au 10.630793  6.378477  0.000000
Au  0.000000  8.504635  0.000000
Au  4.252317  8.504635  0.000000
Au  8.504635  8.504635  0.000000
Au  2.126159 10.630793  0.000000
Au  6.378477 10.630793  0.000000
Au 10.630793 10.630793  0.000000
Au  2.126159  0.000000  2.126159
Au  6.378477  0.000000  2.126159
Au 10.630793  0.000000  2.126159
Au  0.000000  2.126159  2.126159
Au  4.252317  2.126159  2.126159
Au  8.504635  2.126159  2.126159
Au  2.126159  4.252317  2.126159
Au  6.378477  4.252317  2.126159
Au 10.630793  4.252317  2.126159
Au  0.000000  6.378477  2.126159
Au  4.252317  6.378477  2.126159
Au  8.504635  6.378477  2.126159