&control
    title                   = 'top.O1.Au62.d.0.0.phi.0.psi.90.relax'
    calculation             = 'relax'
    restart_mode            = 'from_scratch'
    pseudo_dir              = '../../../../pseudo/'
    outdir                  = '../../../../tempdir/'
    prefix                  = '6510999'
    verbosity               = 'default'
/
 
&system
    ibrav           = 8 
    celldm(1)       = 24.1232766176
    celldm(2)       = 1
    celldm(3)       = 2

    nat             = 75
    ntyp            = 3

    ecutwfc         = 50
    ecutrho         = 400
    occupations     = 'smearing'
    smearing        = 'marzari-vanderbilt'
    degauss         = 0.02
/

&electrons
    conv_thr        = 1.0D-8
/

&ions

/

&cell

/

ATOMIC_SPECIES
 Au 196.966569 Au.pbe-nd-van.UPF
 H        1.01 H.pbe-van_ak.UPF
 O       16.00 O.pbe-van_ak.UPF

K_POINTS automatic
2 2 3 1 1 1


ATOMIC_POSITIONS (angstrom) 
O   6.380604810  4.253735890  9.374044687    1  1  1
H   5.779635905  3.672983990  8.874001538    1  1  1
H   6.963352610  3.642809559  9.859154800    1  1  1
Au  0.000000000  0.000000000  0.000000000    0  0  0
Au  4.253738000  0.000000000  0.000000000    0  0  0
Au  8.507476000  0.000000000  0.000000000    0  0  0
Au  2.126869000  2.126869000  0.000000000    0  0  0
Au  6.380607000  2.126869000  0.000000000    0  0  0
Au 10.634344000  2.126869000  0.000000000    0  0  0
Au  0.000000000  4.253738000  0.000000000    0  0  0
Au  4.253738000  4.253738000  0.000000000    0  0  0
Au  8.507476000  4.253738000  0.000000000    0  0  0
Au  2.126869000  6.380607000  0.000000000    0  0  0
Au  6.380607000  6.380607000  0.000000000    0  0  0
Au 10.634344000  6.380607000  0.000000000    0  0  0
Au  0.000000000  8.507476000  0.000000000    0  0  0
Au  4.253738000  8.507476000  0.000000000    0  0  0
Au  8.507476000  8.507476000  0.000000000    0  0  0
Au  2.126869000 10.634344000  0.000000000    0  0  0
Au  6.380607000 10.634344000  0.000000000    0  0  0
Au 10.634344000 10.634344000  0.000000000    0  0  0
Au  2.126869000  0.000000000  2.126869000    0  0  0
Au  6.380607000  0.000000000  2.126869000    0  0  0
Au 10.634344000  0.000000000  2.126869000    0  0  0
Au  0.000000000  2.126869000  2.126869000    0  0  0
Au  4.253738000  2.126869000  2.126869000    0  0  0
Au  8.507476000  2.126869000  2.126869000    0  0  0
Au  2.126869000  4.253738000  2.126869000    0  0  0
Au  6.380607000  4.253738000  2.126869000    0  0  0
Au 10.634344000  4.253738000  2.126869000    0  0  0
Au  0.000000000  6.380607000  2.126869000    0  0  0
Au  4.253738000  6.380607000  2.126869000    0  0  0
Au  8.507476000  6.380607000  2.126869000    0  0  0
Au  2.126869000  8.507476000  2.126869000    0  0  0
Au  6.380607000  8.507476000  2.126869000    0  0  0
Au 10.634344000  8.507476000  2.126869000    0  0  0
Au  0.000000000 10.634344000  2.126869000    0  0  0
Au  4.253738000 10.634344000  2.126869000    0  0  0
Au  8.507476000 10.634344000  2.126869000    0  0  0
Au -0.000231899 -0.000231899  4.257900259    0  0  0
Au  4.253734608 -0.000230451  4.257893418    0  0  0
Au  8.507492151 -0.000233495  4.257904766    0  0  0
Au -0.000230451  4.253734608  4.257893418    0  0  0
Au  4.253734872  4.253734872  4.257887922    0  0  0
Au  8.507489223  4.253735714  4.257899972    0  0  0
Au -0.000233495  8.507492151  4.257904766    0  0  0
Au  4.253735714  8.507489223  4.257899972    0  0  0
Au  8.507490970  8.507490970  4.257910325    0  0  0
Au  2.126854284  2.126854284  4.257906940    0  0  0
Au  6.380600017  2.126855061  4.257899048    0  0  0
Au 10.634586601  2.126852368  4.257903711    0  0  0
Au  2.126855061  6.380600017  4.257899048    0  0  0
Au  6.380601302  6.380601302  4.257890644    0  0  0
Au 10.634584097  6.380601789  4.257895413    0  0  0
Au  2.126852368 10.634586601  4.257903711    0  0  0
Au  6.380601789 10.634584097  4.257895413    0  0  0
Au 10.634585069 10.634585069  4.257900809    0  0  0
Au  2.126863116 -0.000141616  6.373929777    0  0  0
Au  6.380603693 -0.000142418  6.373934377    0  0  0
Au 10.634494877 -0.000142245  6.373820138    0  0  0
Au -0.000141616  2.126863116  6.373929777    0  0  0
Au  4.253733333  2.126865567  6.374044528    0  0  0
Au  8.507479448  2.126865512  6.374047422    0  0  0
Au  2.126865567  4.253733333  6.374044528    0  0  0
Au  6.380604810  4.253735890  6.374044687    0  0  0
Au 10.634492342  4.253734512  6.373939184    0  0  0
Au -0.000142418  6.380603693  6.373934377    0  0  0
Au  4.253735890  6.380604810  6.374044687    0  0  0
Au  8.507478446  6.380605875  6.374047284    0  0  0
Au  2.126865512  8.507479448  6.374047422    0  0  0
Au  6.380605875  8.507478446  6.374047284    0  0  0
Au 10.634491790  8.507480400  6.373938586    0  0  0
Au -0.000142245 10.634494877  6.373820138    0  0  0
Au  4.253734512 10.634492342  6.373939184    0  0  0
Au  8.507480400 10.634491790  6.373938586    0  0  0
